Na  O Cl                                
   1.00000000000000     
    -8.9147568800000005    8.9147568800000005    0.0000000000000000
   -17.8295137600000011    0.0000000000000000    0.0000000000000000
     0.0000000000000000    0.0000000000000000   27.6008243678361183
   Na   O    Cl
    96    32    32
Direct
  0.2499930420802575  0.0000019818782819  0.2958904137027128
 -0.0002204697225347  0.1249778357577764  0.2130581181628363
  0.2500012667653095 -0.0000005214462743  0.4595458826472084
 -0.0000252768615591  0.1262478786815237  0.3777302209647105
  0.2499971260297124  0.0000030626726144  0.6230345112820612
 -0.0001946629272462  0.1247892894254918  0.5413578125135077
  0.2499987055760947  0.0000013832206538  0.7853113843305398
 -0.0000275529314135  0.1241132721046743  0.7051669804823106
  0.2498598341784250  0.1249767874323005  0.2130007335074517
  0.2500022811814296  0.2499982379294373  0.2959327391954967
  0.0002500558833717  0.3750048280253916  0.2130635231867355
  0.2526333005882048  0.1236439645838357  0.3775210632749829
  0.2499976576085965  0.2500020401172312  0.4594986153850962
  0.0000148480365757  0.3737588834818631  0.3777311827989910
  0.2495613098504242  0.1251922417233057  0.5413015009231925
  0.2499980569962377  0.2500021126826572  0.6230974558092266
  0.0001926515234681  0.3752100441162139  0.5413553596093093
  0.2482919432917234  0.1258402417195540  0.7049966847363106
  0.2499978561122018  0.2500018049452516  0.7854154398575258
  0.0000215932162285  0.3758934892774249  0.7051667312565807
  0.2501452005288827  0.3750125102021014  0.2129860644137748
  0.2500017584461173  0.4999986948095774  0.2958919271563888
 -0.0002187627769417  0.6249777644137835  0.2130576030428834
  0.2473528418625045  0.3763613148505774  0.3775208328482389
  0.2499860442708305  0.5000085880359472  0.4595485413093311
 -0.0000248693510711  0.6262476085516084  0.3777305424839191
  0.2504324134775526  0.3748149161802248  0.5413025410066630
  0.2499969210791282  0.5000032735827132  0.6230351104769107
 -0.0001958320105048  0.6247891249302825  0.5413587896750235
  0.2517024681603496  0.3741658067465006  0.7049969181305262
  0.2499987641934069  0.5000013232548622  0.7853116179505073
 -0.0000275653027290  0.6241131948154992  0.7051671226112203
  0.2498607675658295  0.6249767007933270  0.2130012988363449
  0.2499872127138029  0.7500066553391375  0.2959346885651754
  0.0002499540984866  0.8750053577818974  0.2130638273960056
  0.2526438141893432  0.6236371129097190  0.3775198848197007
  0.2500039660998629  0.7500003845150353  0.4594998353721877
  0.0000110475539770  0.8737544348188749  0.3777440869710122
  0.2495624095598512  0.6251919018669425  0.5413024679378100
  0.2499978529901040  0.7500030197547245  0.6230973740291799
  0.0001929092336304  0.8752101315630080  0.5413559052937221
  0.2482920926369250  0.6258401901804496  0.7049968059872977
  0.2499978629312858  0.7500018534590972  0.7854154280475293
  0.0000217823254847  0.8758936854322403  0.7051668254114422
  0.2501444234546303  0.8750127350519273  0.2129861359607902
  0.2473541524963661  0.8763609395038202  0.3775214141067171
  0.2504326002283404  0.8748155008620571  0.5413013334008616
  0.2517023899903261  0.8741659366656938  0.7049967016366614
  0.7500016061039950 -0.0000011549831611  0.2958918601431622
  0.4997813270143736  0.1249776499707941  0.2130575827213479
  0.7499859988374222  0.0000085894258468  0.4595485076725077
  0.4999756334172190  0.1262473276683390  0.3777305424624317
  0.7499970643406008  0.0000031023511453  0.6230351040991066
  0.4998044143819385  0.1247885847832768  0.5413589869585673
  0.7499988083941590  0.0000013056952725  0.7853116087894920
  0.4999724442294949  0.1241131341646481  0.7051671291736112
  0.7498609625400361  0.1249765630762044  0.2130013361959969
  0.7499881240440796  0.2500057063037190  0.2959347071738883
  0.5002500434306294  0.3750052153031918  0.2130638620496282
  0.7526439046958200  0.1236367576485541  0.3775199305555239
  0.7500053893481338  0.2499990922022211  0.4594998522056807
  0.5000112986866000  0.3737538926870972  0.3777443016123772
  0.7495633777562225  0.1251912476155326  0.5413027336954082
  0.7499988474050868  0.2500020767133777  0.6230975565065775
  0.5001933443003795  0.3752099318184572  0.5413559583279508
  0.7482921319999709  0.1258401742153345  0.7049967942449280
  0.7499980039863577  0.2500017108811903  0.7854154436954289
  0.5000218514434309  0.3758935845689083  0.7051669296303785
  0.7501445898412339  0.3750126707020284  0.2129861474832667
  0.7499932279069591  0.5000018023448479  0.2958907121509837
  0.4997796294971018  0.6249778811060663  0.2130581137313746
  0.7473518211884683  0.3763619632729899  0.3775206999428765
  0.7500011613562151  0.4999995288946506  0.4595463006260669
  0.4999744986237807  0.6262481464979848  0.3777299469691403
  0.7504327820006326  0.3748151984634046  0.5413022326392104
  0.7499968960677257  0.5000032507606127  0.6230347842539226
  0.4998052550934477  0.6247883747812826  0.5413590871887780
  0.7517027506046000  0.3741657439994837  0.7049967922422227
  0.7499989293965884  0.5000012569230788  0.7853115427681929
  0.4999725188208745  0.6241131385598497  0.7051671260081244
  0.7498597344615285  0.6249767878064683  0.2130007896547857
  0.7500013342609908  0.7499991770924994  0.2959326541608389
  0.5002501056692802  0.8750048773784898  0.2130634705555741
  0.7526330033605910  0.6236443599242332  0.3775208009517140
  0.7499962135364641  0.7500033363264109  0.4594986224357252
  0.5000148705489289  0.8737579174998248  0.3777317704509769
  0.7495629327372564  0.6251915412506743  0.5413027928747676
  0.7499970802084438  0.7500030372695179  0.6230973797364809
  0.5001886114528952  0.8752186744649875  0.5413573450269166
  0.7482918740145622  0.6258402400885521  0.7049968056116225
  0.7499979517029838  0.7500017677829677  0.7854154497338895
  0.5000216180050050  0.8758937231484820  0.7051667277440226
  0.7501451276526764  0.8750125923866121  0.2129859926167389
  0.7473518497835527  0.8763619889802581  0.3775205934981751
  0.7504323341652870  0.8748151810690907  0.5413025283413494
  0.7517021989256749  0.8741659520496855  0.7049968646149611
  0.2500295704032831 -0.0000180690142670  0.2146928215051667
  0.2499969501698308  0.0000007028894667  0.3777578190499485
  0.2499972343645700  0.0000032557699365  0.5413254078357871
  0.2499980484909844  0.0000021080688337  0.7049286197288678
  0.2500305279918872  0.2499826858487025  0.2147027887631014
  0.2499958370445364  0.2500017683842581  0.3777629280275113
  0.2499974997619530  0.2500026723956476  0.5413157353608016
  0.2499979871215555  0.2500024405710777  0.7050010340702794
  0.2500300983966984  0.4999817949245333  0.2146935642910153
  0.2499951126568165  0.5000007472899128  0.3777594570388118
  0.2499974327132584  0.5000027721567556  0.5413268231988740
  0.2499979460642564  0.5000021653215739  0.7049288868342628
  0.2500295739067548  0.7499834211909220  0.2147037524206102
  0.2499930357068011  0.7500024920072630  0.3777642320365779
  0.2499978368120018  0.7500031400146847  0.5413160750590591
  0.2499975869481763  0.7500027116960352  0.7050010041785703
  0.7500301145012294 -0.0000182215334855  0.2146935156493951
  0.7499951802991083  0.0000006701465792  0.3777594357432469
  0.7499972784001907  0.0000029061559774  0.5413268081800212
  0.7499979810345139  0.0000021245926327  0.7049288767524599
  0.7500295798134864  0.2499833921428677  0.2147037843151526
  0.7499932816804770  0.2500020940039903  0.3777642745242991
  0.7499986304679237  0.2500025598074892  0.5413161674610614
  0.7499975990482433  0.2500024307620265  0.7050010961314391
  0.7500295455102077  0.4999819501488036  0.2146929753561282
  0.7499967425897091  0.5000008945623942  0.3777579823587739
  0.7499979699910929  0.5000024901363090  0.5413259719113758
  0.7499975445759232  0.5000026004247969  0.7049289225704281
  0.7500304772755347  0.7499827214000010  0.2147027573685765
  0.7499954366292011  0.7500021824478379  0.3777628614491335
  0.7499973822030470  0.7500032224180556  0.5413156565004709
  0.7499975154621503  0.7500027084810457  0.7050010140742187
 -0.0000077943391956  0.0000052424725160  0.2946748380265973
 -0.0000048259374085  0.0000027848354532  0.4594254026511488
 -0.0000037024401002  0.0000031887506321  0.6229376835424502
 -0.0000041095242314  0.0000035932340261  0.7846698123135003
  0.0000154148136079  0.2499840268883701  0.2947216434694588
 -0.0000042124574371  0.2500035602540142  0.4594271140127257
 -0.0000041067031554  0.2500037556701672  0.6228996075647790
 -0.0000040309175695  0.2500035658166385  0.7847746181199690
 -0.0000061367533064  0.5000029539576663  0.2946757591416717
 -0.0000041337309435  0.5000032688721247  0.4594254299612525
 -0.0000037084656229  0.5000033207537120  0.6229375988101578
 -0.0000041162615788  0.5000036342147866  0.7846698354901291
  0.0000153422453935  0.7499830350772688  0.2947216613676083
 -0.0000048755604309  0.7500047605806233  0.4594267442930352
  0.0000023483259567  0.7499985398935628  0.6228912242495178
 -0.0000041123525624  0.7500036130022405  0.7847745479301841
  0.4999940183976776  0.0000031085444910  0.2946755816424086
  0.4999961381361679  0.0000034540397704  0.4594253576253552
  0.4999965162908667  0.0000032661062951  0.6229376888212844
  0.4999958537311784  0.0000035954801995  0.7846698094665092
  0.5000151873156838  0.2499831301736060  0.2947216860012802
  0.4999951491401278  0.2500047446610205  0.4594268192740478
  0.5000022440873727  0.2499985869317363  0.6228912062534604
  0.4999958666992024  0.2500036354636367  0.7847745566203882
  0.4999926264993274  0.5000051333317627  0.2946750547238830
  0.4999955130415514  0.5000028890895155  0.4594254944984066
  0.4999962997719678  0.5000033637765717  0.6229376102237690
  0.4999957573139995  0.5000036399072492  0.7846698154832747
  0.5000161117877439  0.7499833513076761  0.2947217349685162
  0.4999944408488989  0.7500054371728578  0.4594274490920040
  0.5000023630264169  0.7499984688746224  0.6228912667240859
  0.4999958315741641  0.7500036931167099  0.7847745639123122
 
  0.00000000E+00  0.00000000E+00  0.00000000E+00
  0.00000000E+00  0.00000000E+00  0.00000000E+00
  0.00000000E+00  0.00000000E+00  0.00000000E+00
  0.00000000E+00  0.00000000E+00  0.00000000E+00
  0.00000000E+00  0.00000000E+00  0.00000000E+00
  0.00000000E+00  0.00000000E+00  0.00000000E+00
  0.00000000E+00  0.00000000E+00  0.00000000E+00
  0.00000000E+00  0.00000000E+00  0.00000000E+00
  0.00000000E+00  0.00000000E+00  0.00000000E+00
  0.00000000E+00  0.00000000E+00  0.00000000E+00
  0.00000000E+00  0.00000000E+00  0.00000000E+00
  0.00000000E+00  0.00000000E+00  0.00000000E+00
  0.00000000E+00  0.00000000E+00  0.00000000E+00
  0.00000000E+00  0.00000000E+00  0.00000000E+00
  0.00000000E+00  0.00000000E+00  0.00000000E+00
  0.00000000E+00  0.00000000E+00  0.00000000E+00
  0.00000000E+00  0.00000000E+00  0.00000000E+00
  0.00000000E+00  0.00000000E+00  0.00000000E+00
  0.00000000E+00  0.00000000E+00  0.00000000E+00
  0.00000000E+00  0.00000000E+00  0.00000000E+00
  0.00000000E+00  0.00000000E+00  0.00000000E+00
  0.00000000E+00  0.00000000E+00  0.00000000E+00
  0.00000000E+00  0.00000000E+00  0.00000000E+00
  0.00000000E+00  0.00000000E+00  0.00000000E+00
  0.00000000E+00  0.00000000E+00  0.00000000E+00
  0.00000000E+00  0.00000000E+00  0.00000000E+00
  0.00000000E+00  0.00000000E+00  0.00000000E+00
  0.00000000E+00  0.00000000E+00  0.00000000E+00
  0.00000000E+00  0.00000000E+00  0.00000000E+00
  0.00000000E+00  0.00000000E+00  0.00000000E+00
  0.00000000E+00  0.00000000E+00  0.00000000E+00
  0.00000000E+00  0.00000000E+00  0.00000000E+00
  0.00000000E+00  0.00000000E+00  0.00000000E+00
  0.00000000E+00  0.00000000E+00  0.00000000E+00
  0.00000000E+00  0.00000000E+00  0.00000000E+00
  0.00000000E+00  0.00000000E+00  0.00000000E+00
  0.00000000E+00  0.00000000E+00  0.00000000E+00
  0.00000000E+00  0.00000000E+00  0.00000000E+00
  0.00000000E+00  0.00000000E+00  0.00000000E+00
  0.00000000E+00  0.00000000E+00  0.00000000E+00
  0.00000000E+00  0.00000000E+00  0.00000000E+00
  0.00000000E+00  0.00000000E+00  0.00000000E+00
  0.00000000E+00  0.00000000E+00  0.00000000E+00
  0.00000000E+00  0.00000000E+00  0.00000000E+00
  0.00000000E+00  0.00000000E+00  0.00000000E+00
  0.00000000E+00  0.00000000E+00  0.00000000E+00
  0.00000000E+00  0.00000000E+00  0.00000000E+00
  0.00000000E+00  0.00000000E+00  0.00000000E+00
  0.00000000E+00  0.00000000E+00  0.00000000E+00
  0.00000000E+00  0.00000000E+00  0.00000000E+00
  0.00000000E+00  0.00000000E+00  0.00000000E+00
  0.00000000E+00  0.00000000E+00  0.00000000E+00
  0.00000000E+00  0.00000000E+00  0.00000000E+00
  0.00000000E+00  0.00000000E+00  0.00000000E+00
  0.00000000E+00  0.00000000E+00  0.00000000E+00
  0.00000000E+00  0.00000000E+00  0.00000000E+00
  0.00000000E+00  0.00000000E+00  0.00000000E+00
  0.00000000E+00  0.00000000E+00  0.00000000E+00
  0.00000000E+00  0.00000000E+00  0.00000000E+00
  0.00000000E+00  0.00000000E+00  0.00000000E+00
  0.00000000E+00  0.00000000E+00  0.00000000E+00
  0.00000000E+00  0.00000000E+00  0.00000000E+00
  0.00000000E+00  0.00000000E+00  0.00000000E+00
  0.00000000E+00  0.00000000E+00  0.00000000E+00
  0.00000000E+00  0.00000000E+00  0.00000000E+00
  0.00000000E+00  0.00000000E+00  0.00000000E+00
  0.00000000E+00  0.00000000E+00  0.00000000E+00
  0.00000000E+00  0.00000000E+00  0.00000000E+00
  0.00000000E+00  0.00000000E+00  0.00000000E+00
  0.00000000E+00  0.00000000E+00  0.00000000E+00
  0.00000000E+00  0.00000000E+00  0.00000000E+00
  0.00000000E+00  0.00000000E+00  0.00000000E+00
  0.00000000E+00  0.00000000E+00  0.00000000E+00
  0.00000000E+00  0.00000000E+00  0.00000000E+00
  0.00000000E+00  0.00000000E+00  0.00000000E+00
  0.00000000E+00  0.00000000E+00  0.00000000E+00
  0.00000000E+00  0.00000000E+00  0.00000000E+00
  0.00000000E+00  0.00000000E+00  0.00000000E+00
  0.00000000E+00  0.00000000E+00  0.00000000E+00
  0.00000000E+00  0.00000000E+00  0.00000000E+00
  0.00000000E+00  0.00000000E+00  0.00000000E+00
  0.00000000E+00  0.00000000E+00  0.00000000E+00
  0.00000000E+00  0.00000000E+00  0.00000000E+00
  0.00000000E+00  0.00000000E+00  0.00000000E+00
  0.00000000E+00  0.00000000E+00  0.00000000E+00
  0.00000000E+00  0.00000000E+00  0.00000000E+00
  0.00000000E+00  0.00000000E+00  0.00000000E+00
  0.00000000E+00  0.00000000E+00  0.00000000E+00
  0.00000000E+00  0.00000000E+00  0.00000000E+00
  0.00000000E+00  0.00000000E+00  0.00000000E+00
  0.00000000E+00  0.00000000E+00  0.00000000E+00
  0.00000000E+00  0.00000000E+00  0.00000000E+00
  0.00000000E+00  0.00000000E+00  0.00000000E+00
  0.00000000E+00  0.00000000E+00  0.00000000E+00
  0.00000000E+00  0.00000000E+00  0.00000000E+00
  0.00000000E+00  0.00000000E+00  0.00000000E+00
  0.00000000E+00  0.00000000E+00  0.00000000E+00
  0.00000000E+00  0.00000000E+00  0.00000000E+00
  0.00000000E+00  0.00000000E+00  0.00000000E+00
  0.00000000E+00  0.00000000E+00  0.00000000E+00
  0.00000000E+00  0.00000000E+00  0.00000000E+00
  0.00000000E+00  0.00000000E+00  0.00000000E+00
  0.00000000E+00  0.00000000E+00  0.00000000E+00
  0.00000000E+00  0.00000000E+00  0.00000000E+00
  0.00000000E+00  0.00000000E+00  0.00000000E+00
  0.00000000E+00  0.00000000E+00  0.00000000E+00
  0.00000000E+00  0.00000000E+00  0.00000000E+00
  0.00000000E+00  0.00000000E+00  0.00000000E+00
  0.00000000E+00  0.00000000E+00  0.00000000E+00
  0.00000000E+00  0.00000000E+00  0.00000000E+00
  0.00000000E+00  0.00000000E+00  0.00000000E+00
  0.00000000E+00  0.00000000E+00  0.00000000E+00
  0.00000000E+00  0.00000000E+00  0.00000000E+00
  0.00000000E+00  0.00000000E+00  0.00000000E+00
  0.00000000E+00  0.00000000E+00  0.00000000E+00
  0.00000000E+00  0.00000000E+00  0.00000000E+00
  0.00000000E+00  0.00000000E+00  0.00000000E+00
  0.00000000E+00  0.00000000E+00  0.00000000E+00
  0.00000000E+00  0.00000000E+00  0.00000000E+00
  0.00000000E+00  0.00000000E+00  0.00000000E+00
  0.00000000E+00  0.00000000E+00  0.00000000E+00
  0.00000000E+00  0.00000000E+00  0.00000000E+00
  0.00000000E+00  0.00000000E+00  0.00000000E+00
  0.00000000E+00  0.00000000E+00  0.00000000E+00
  0.00000000E+00  0.00000000E+00  0.00000000E+00
  0.00000000E+00  0.00000000E+00  0.00000000E+00
  0.00000000E+00  0.00000000E+00  0.00000000E+00
  0.00000000E+00  0.00000000E+00  0.00000000E+00
  0.00000000E+00  0.00000000E+00  0.00000000E+00
  0.00000000E+00  0.00000000E+00  0.00000000E+00
  0.00000000E+00  0.00000000E+00  0.00000000E+00
  0.00000000E+00  0.00000000E+00  0.00000000E+00
  0.00000000E+00  0.00000000E+00  0.00000000E+00
  0.00000000E+00  0.00000000E+00  0.00000000E+00
  0.00000000E+00  0.00000000E+00  0.00000000E+00
  0.00000000E+00  0.00000000E+00  0.00000000E+00
  0.00000000E+00  0.00000000E+00  0.00000000E+00
  0.00000000E+00  0.00000000E+00  0.00000000E+00
  0.00000000E+00  0.00000000E+00  0.00000000E+00
  0.00000000E+00  0.00000000E+00  0.00000000E+00
  0.00000000E+00  0.00000000E+00  0.00000000E+00
  0.00000000E+00  0.00000000E+00  0.00000000E+00
  0.00000000E+00  0.00000000E+00  0.00000000E+00
  0.00000000E+00  0.00000000E+00  0.00000000E+00
  0.00000000E+00  0.00000000E+00  0.00000000E+00
  0.00000000E+00  0.00000000E+00  0.00000000E+00
  0.00000000E+00  0.00000000E+00  0.00000000E+00
  0.00000000E+00  0.00000000E+00  0.00000000E+00
  0.00000000E+00  0.00000000E+00  0.00000000E+00
  0.00000000E+00  0.00000000E+00  0.00000000E+00
  0.00000000E+00  0.00000000E+00  0.00000000E+00
  0.00000000E+00  0.00000000E+00  0.00000000E+00
  0.00000000E+00  0.00000000E+00  0.00000000E+00
  0.00000000E+00  0.00000000E+00  0.00000000E+00
  0.00000000E+00  0.00000000E+00  0.00000000E+00
  0.00000000E+00  0.00000000E+00  0.00000000E+00
  0.00000000E+00  0.00000000E+00  0.00000000E+00
  0.00000000E+00  0.00000000E+00  0.00000000E+00
  0.00000000E+00  0.00000000E+00  0.00000000E+00
  0.00000000E+00  0.00000000E+00  0.00000000E+00
