Na  O Cl 
 1.0000000000000000
    -8.9147568800000005    8.9147568800000005    0.0000000000000000
   -17.8295137600000011    0.0000000000000000    0.0000000000000000
     0.0000000000000000    0.0000000000000000   27.6008243678361183
 Na  O   Cl 
  96  32  32
Cartesian
 -2.2286899777543350  2.2286899777543350  8.2286889982564162
 -2.2286899777543350  0.0000004457378440  6.0000000000000009
 -2.2286899777543350  2.2286899777543350 12.6860672707774871
 -2.2286899777543350  0.0000004457378440 10.4573785485293165
 -2.2286899777543350  2.2286899777543350 17.1434458193067982
 -2.2286899777543350  0.0000004457378440 14.9147570970586223
 -2.2286899777543350  2.2286899777543350 21.6008243678361183
 -2.2286899777543350  0.0000004457378440 19.3721353695797056
 -4.4573788857378442  2.2286899777543350  6.0000000000000009
 -6.6860684177543348  2.2286899777543354  8.2286889982564162
 -6.6860684177543348  0.0000004457378449  6.0000000000000009
 -4.4573788857378442  2.2286899777543350 10.4573785485293165
 -6.6860684177543348  2.2286899777543354 12.6860672707774871
 -6.6860684177543348  0.0000004457378449 10.4573785485293165
 -4.4573788857378442  2.2286899777543350 14.9147570970586223
 -6.6860684177543348  2.2286899777543354 17.1434458193067982
 -6.6860684177543348  0.0000004457378449 14.9147570970586223
 -4.4573788857378442  2.2286899777543350 19.3721353695797056
 -6.6860684177543348  2.2286899777543354 21.6008243678361183
 -6.6860684177543348  0.0000004457378449 19.3721353695797056
 -8.9147573257378454  2.2286899777543363  6.0000000000000009
 -11.1434468577543360  2.2286899777543354  8.2286889982564162
 -11.1434468577543360  0.0000004457378449  6.0000000000000009
 -8.9147573257378454  2.2286899777543363 10.4573785485293165
 -11.1434468577543360  2.2286899777543354 12.6860672707774871
 -11.1434468577543360  0.0000004457378449 10.4573785485293165
 -8.9147573257378454  2.2286899777543363 14.9147570970586223
 -11.1434468577543360  2.2286899777543354 17.1434458193067982
 -11.1434468577543360  0.0000004457378449 14.9147570970586223
 -8.9147573257378454  2.2286899777543363 19.3721353695797056
 -11.1434468577543360  2.2286899777543354 21.6008243678361183
 -11.1434468577543360  0.0000004457378449 19.3721353695797056
 -13.3721357657378466  2.2286899777543354  6.0000000000000009
 -15.6008252977543371  2.2286899777543354  8.2286889982564162
 -15.6008252977543371  0.0000004457378449  6.0000000000000009
 -13.3721357657378466  2.2286899777543354 10.4573785485293165
 -15.6008252977543371  2.2286899777543354 12.6860672707774871
 -15.6008252977543371  0.0000004457378449 10.4573785485293165
 -13.3721357657378466  2.2286899777543354 14.9147570970586223
 -15.6008252977543371  2.2286899777543354 17.1434458193067982
 -15.6008252977543371  0.0000004457378449 14.9147570970586223
 -13.3721357657378466  2.2286899777543354 19.3721353695797056
 -15.6008252977543371  2.2286899777543354 21.6008243678361183
 -15.6008252977543371  0.0000004457378449 19.3721353695797056
 -17.8295142057378442  2.2286899777543354  6.0000000000000009
 -17.8295142057378442  2.2286899777543354 10.4573785485293165
 -17.8295142057378442  2.2286899777543354 14.9147570970586223
 -17.8295142057378442  2.2286899777543354 19.3721353695797056
 -6.6860684177543348  6.6860684177543348  8.2286889982564162
 -6.6860684177543348  4.4573788857378442  6.0000000000000009
 -6.6860684177543348  6.6860684177543348 12.6860672707774871
 -6.6860684177543348  4.4573788857378442 10.4573785485293165
 -6.6860684177543348  6.6860684177543348 17.1434458193067982
 -6.6860684177543348  4.4573788857378442 14.9147570970586223
 -6.6860684177543348  6.6860684177543348 21.6008243678361183
 -6.6860684177543348  4.4573788857378442 19.3721353695797056
 -8.9147573257378454  6.6860684177543348  6.0000000000000009
 -11.1434468577543360  6.6860684177543348  8.2286889982564162
 -11.1434468577543360  4.4573788857378442  6.0000000000000009
 -8.9147573257378454  6.6860684177543348 10.4573785485293165
 -11.1434468577543360  6.6860684177543348 12.6860672707774871
 -11.1434468577543360  4.4573788857378442 10.4573785485293165
 -8.9147573257378454  6.6860684177543348 14.9147570970586223
 -11.1434468577543360  6.6860684177543348 17.1434458193067982
 -11.1434468577543360  4.4573788857378442 14.9147570970586223
 -8.9147573257378454  6.6860684177543348 19.3721353695797056
 -11.1434468577543360  6.6860684177543348 21.6008243678361183
 -11.1434468577543360  4.4573788857378442 19.3721353695797056
 -13.3721357657378466  6.6860684177543348  6.0000000000000009
 -15.6008252977543371  6.6860684177543348  8.2286889982564162
 -15.6008252977543371  4.4573788857378451  6.0000000000000009
 -13.3721357657378466  6.6860684177543348 10.4573785485293165
 -15.6008252977543371  6.6860684177543348 12.6860672707774871
 -15.6008252977543371  4.4573788857378451 10.4573785485293165
 -13.3721357657378466  6.6860684177543348 14.9147570970586223
 -15.6008252977543371  6.6860684177543348 17.1434458193067982
 -15.6008252977543371  4.4573788857378451 14.9147570970586223
 -13.3721357657378466  6.6860684177543348 19.3721353695797056
 -15.6008252977543371  6.6860684177543348 21.6008243678361183
 -15.6008252977543371  4.4573788857378451 19.3721353695797056
 -17.8295142057378442  6.6860684177543348  6.0000000000000009
 -20.0582037377543365  6.6860684177543348  8.2286889982564162
 -20.0582037377543365  4.4573788857378442  6.0000000000000009
 -17.8295142057378442  6.6860684177543348 10.4573785485293165
 -20.0582037377543365  6.6860684177543348 12.6860672707774871
 -20.0582037377543365  4.4573788857378442 10.4573785485293165
 -17.8295142057378442  6.6860684177543348 14.9147570970586223
 -20.0582037377543365  6.6860684177543348 17.1434458193067982
 -20.0582037377543365  4.4573788857378442 14.9147570970586223
 -17.8295142057378442  6.6860684177543348 19.3721353695797056
 -20.0582037377543365  6.6860684177543348 21.6008243678361183
 -20.0582037377543365  4.4573788857378442 19.3721353695797056
 -22.2868926457378436  6.6860684177543348  6.0000000000000009
 -22.2868926457378436  6.6860684177543348 10.4573785485293165
 -22.2868926457378436  6.6860684177543348 14.9147570970586223
 -22.2868926457378436  6.6860684177543348 19.3721353695797056
 -2.2286899777543350  2.2286899777543350  6.0000000000000009
 -2.2286899777543350  2.2286899777543350 10.4573785485293165
 -2.2286899777543350  2.2286899777543350 14.9147570970586223
 -2.2286899777543350  2.2286899777543350 19.3721353695797056
 -6.6860684177543348  2.2286899777543354  6.0000000000000009
 -6.6860684177543348  2.2286899777543354 10.4573785485293165
 -6.6860684177543348  2.2286899777543354 14.9147570970586223
 -6.6860684177543348  2.2286899777543354 19.3721353695797056
 -11.1434468577543360  2.2286899777543354  6.0000000000000009
 -11.1434468577543360  2.2286899777543354 10.4573785485293165
 -11.1434468577543360  2.2286899777543354 14.9147570970586223
 -11.1434468577543360  2.2286899777543354 19.3721353695797056
 -15.6008252977543371  2.2286899777543354  6.0000000000000009
 -15.6008252977543371  2.2286899777543354 10.4573785485293165
 -15.6008252977543371  2.2286899777543354 14.9147570970586223
 -15.6008252977543371  2.2286899777543354 19.3721353695797056
 -6.6860684177543348  6.6860684177543348  6.0000000000000009
 -6.6860684177543348  6.6860684177543348 10.4573785485293165
 -6.6860684177543348  6.6860684177543348 14.9147570970586223
 -6.6860684177543348  6.6860684177543348 19.3721353695797056
 -11.1434468577543360  6.6860684177543348  6.0000000000000009
 -11.1434468577543360  6.6860684177543348 10.4573785485293165
 -11.1434468577543360  6.6860684177543348 14.9147570970586223
 -11.1434468577543360  6.6860684177543348 19.3721353695797056
 -15.6008252977543371  6.6860684177543348  6.0000000000000009
 -15.6008252977543371  6.6860684177543348 10.4573785485293165
 -15.6008252977543371  6.6860684177543348 14.9147570970586223
 -15.6008252977543371  6.6860684177543348 19.3721353695797056
 -20.0582037377543365  6.6860684177543348  6.0000000000000009
 -20.0582037377543365  6.6860684177543348 10.4573785485293165
 -20.0582037377543365  6.6860684177543348 14.9147570970586223
 -20.0582037377543365  6.6860684177543348 19.3721353695797056
 -0.0000004457378440  0.0000004457378440  8.2286889982564162
 -0.0000004457378440  0.0000004457378440 12.6860672707774871
 -0.0000004457378440  0.0000004457378440 17.1434458193067982
 -0.0000004457378440  0.0000004457378440 21.6008243678361183
 -4.4573788857378442  0.0000004457378440  8.2286889982564162
 -4.4573788857378442  0.0000004457378440 12.6860672707774871
 -4.4573788857378442  0.0000004457378440 17.1434458193067982
 -4.4573788857378442  0.0000004457378440 21.6008243678361183
 -8.9147573257378454  0.0000004457378449  8.2286889982564162
 -8.9147573257378454  0.0000004457378449 12.6860672707774871
 -8.9147573257378454  0.0000004457378449 17.1434458193067982
 -8.9147573257378454  0.0000004457378449 21.6008243678361183
 -13.3721357657378448  0.0000004457378449  8.2286889982564162
 -13.3721357657378448  0.0000004457378449 12.6860672707774871
 -13.3721357657378448  0.0000004457378449 17.1434458193067982
 -13.3721357657378448  0.0000004457378449 21.6008243678361183
 -4.4573788857378442  4.4573788857378442  8.2286889982564162
 -4.4573788857378442  4.4573788857378442 12.6860672707774871
 -4.4573788857378442  4.4573788857378442 17.1434458193067982
 -4.4573788857378442  4.4573788857378442 21.6008243678361183
 -8.9147573257378454  4.4573788857378442  8.2286889982564162
 -8.9147573257378454  4.4573788857378442 12.6860672707774871
 -8.9147573257378454  4.4573788857378442 17.1434458193067982
 -8.9147573257378454  4.4573788857378442 21.6008243678361183
 -13.3721357657378466  4.4573788857378442  8.2286889982564162
 -13.3721357657378466  4.4573788857378442 12.6860672707774871
 -13.3721357657378466  4.4573788857378442 17.1434458193067982
 -13.3721357657378466  4.4573788857378442 21.6008243678361183
 -17.8295142057378442  4.4573788857378451  8.2286889982564162
 -17.8295142057378442  4.4573788857378451 12.6860672707774871
 -17.8295142057378442  4.4573788857378451 17.1434458193067982
 -17.8295142057378442  4.4573788857378451 21.6008243678361183
