Na  O Cl                                
   1.00000000000000     
    -3.1518425247742479   -3.1518425247742479    0.0000000000000000
     4.4573784449999989   -4.4573784449999989    0.0000000000000000
    12.9426604827628751  -12.9426604827628751   18.3036859879135712
   Na   O    Cl
    12     4     4
Direct
  0.5000001744298856  0.4999998255701144  0.3278028263794468
  0.0000001000000012  0.4999998255701144  0.4139014131897270
  0.5000001744298856  0.9999998999999988  0.3278028263794468
  0.5000001744298856  0.4999998255701144  0.4139014131897270
  0.0000001000000012  0.4999998255701144  0.5000000000000000
  0.5000001744298856  0.9999998999999988  0.4139014131897270
  0.5000001744298856  0.4999998255701144  0.5000000000000000
  0.0000001000000012  0.4999998255701144  0.5860985868102730
  0.5000001744298856  0.9999998999999988  0.5000000000000000
  0.5000001744298856  0.4999998255701144  0.5860985868102730
  0.0000001000000012  0.4999998255701144  0.6721971736205532
  0.5000001744298856  0.9999998999999988  0.5860985868102730
  0.5000001744298856  0.4999998255701144  0.4139014131897270
  0.5000001744298856  0.4999998255701144  0.5000000000000000
  0.5000001744298856  0.4999998255701144  0.5860985868102730
  0.5000001744298856  0.4999998255701144  0.6721971736205532
  0.0000001000000012  0.9999998999999988  0.4139013875564999
  0.0000001000000012  0.9999998999999988  0.4999999743667729
  0.0000001000000012  0.9999998999999988  0.5860985611770460
  0.0000001000000012  0.9999998999999988  0.6721971479873261
 
  0.00000000E+00  0.00000000E+00  0.00000000E+00
  0.00000000E+00  0.00000000E+00  0.00000000E+00
  0.00000000E+00  0.00000000E+00  0.00000000E+00
  0.00000000E+00  0.00000000E+00  0.00000000E+00
  0.00000000E+00  0.00000000E+00  0.00000000E+00
  0.00000000E+00  0.00000000E+00  0.00000000E+00
  0.00000000E+00  0.00000000E+00  0.00000000E+00
  0.00000000E+00  0.00000000E+00  0.00000000E+00
  0.00000000E+00  0.00000000E+00  0.00000000E+00
  0.00000000E+00  0.00000000E+00  0.00000000E+00
  0.00000000E+00  0.00000000E+00  0.00000000E+00
  0.00000000E+00  0.00000000E+00  0.00000000E+00
  0.00000000E+00  0.00000000E+00  0.00000000E+00
  0.00000000E+00  0.00000000E+00  0.00000000E+00
  0.00000000E+00  0.00000000E+00  0.00000000E+00
  0.00000000E+00  0.00000000E+00  0.00000000E+00
  0.00000000E+00  0.00000000E+00  0.00000000E+00
  0.00000000E+00  0.00000000E+00  0.00000000E+00
  0.00000000E+00  0.00000000E+00  0.00000000E+00
  0.00000000E+00  0.00000000E+00  0.00000000E+00
