Li 
 1.0000000000000000
     3.5100400000000000    0.0000000000000000    0.0000000000000000
     0.0000000000000000    3.5100400000000000    0.0000000000000000
     0.0000000000000000    0.0000000000000000    3.5100400000000000
 Li 
   2
Cartesian
  0.0000000000000000  0.0000000000000000  0.0000000000000000
  1.7550200000000000  1.7550200000000000  1.7550200000000000
