Na                                      
   1.00000000000000     
     5.7310940451428385    1.5356420211428399    0.0000000000000000
     1.5356420211428405    5.7310940451428394    0.0000000000000000
   -14.4222329939385325  -14.4222329939385325   14.4222329939385325
   Na
     4
Direct
  0.5000009505531153  0.5000009505531153  0.4160243425911716
  0.0000001000000012  0.0000001000000012  0.5000000000000000
  0.5000009505531153  0.5000009505531153  0.5000000000000000
  0.0000001000000012  0.0000001000000012  0.5839756574088284
 
  0.00000000E+00  0.00000000E+00  0.00000000E+00
  0.00000000E+00  0.00000000E+00  0.00000000E+00
  0.00000000E+00  0.00000000E+00  0.00000000E+00
  0.00000000E+00  0.00000000E+00  0.00000000E+00
