Na 
 1.0000000000000000
     5.7310940451428385    1.5356420211428399    0.0000000000000000
     1.5356420211428405    5.7310940451428394    0.0000000000000000
   -14.4222329939385325  -14.4222329939385325   14.4222329939385325
 Na 
   4
Cartesian
 -2.3666250594385390 -2.3666250594385390  6.0000000000000000
 -7.2111157702956596 -7.2111157702956596  7.2111164969692663
 -3.5777415564078057 -3.5777415564078057  7.2111164969692663
 -8.4222322672649259 -8.4222322672649259  8.4222329939385325
