Na  O Cl                                
   1.00000000000000     
    -8.9147568800000005    8.9147568800000005    0.0000000000000000
   -17.8295137600000011    0.0000000000000000    0.0000000000000000
     0.0000000000000000    0.0000000000000000   27.6008243678361183
   Na   O    Cl
    96    32    32
Direct
  0.2500027151616846 -0.0000034940078941  0.2958197171934834
 -0.0001959601621644  0.1250643176042718  0.2129354450001981
  0.2500022491339894 -0.0000016598833816  0.4596031522615160
 -0.0000255367659475  0.1262115242392909  0.3777438803175866
  0.2500026871819538 -0.0000032980063413  0.6230862171330206
 -0.0002203781700258  0.1248633408203317  0.5414102851262355
  0.2500042852987113 -0.0000041152716047  0.7852324702704508
 -0.0000697499111841  0.1242578817063543  0.7050909744258065
  0.2501961820767709  0.1248661271415086  0.2129217219632244
  0.2500039137183722  0.2499957150766484  0.2958967787184859
  0.0002084429321165  0.3749257987993715  0.2129354407511182
  0.2525612589107488  0.1236751664567040  0.3775184131324154
  0.2500000002076836  0.2500065150694222  0.4595620255183814
 -0.0000052932193308  0.3738103626148454  0.3777438557664066
  0.2496514745829121  0.1250876965601560  0.5413948144660913
  0.2500024751521169  0.2499964687426898  0.6231689237970478
  0.0002228024831085  0.3751426441673533  0.5414101455236795
  0.2483207951428833  0.1258399102067852  0.7050272395077647
  0.2500036777051616  0.2499963783932145  0.7854853458668614
  0.0000764862558433  0.3757371904749124  0.7050906825701829
  0.2498028056292427  0.3751499396829486  0.2129301902669236
  0.2500029905237975  0.4999960941608412  0.2958202120569120
 -0.0001958897498085  0.6250643132630704  0.2129354867837400
  0.2474341323789843  0.3763262880850045  0.3775170781772780
  0.2500008618797756  0.4999971523155967  0.4596038719304499
 -0.0000245751968140  0.6262112339971742  0.3777441128346433
  0.2503623394675134  0.3749127106202561  0.5413964541321813
  0.2499897529371219  0.4999998302428333  0.6230828525873993
 -0.0002213047562017  0.6248640215286438  0.5414098557615055
  0.2516853317150221  0.3741533023297330  0.7050260246103546
  0.2500039860599522  0.4999962924416982  0.7852330682668877
 -0.0000701537509492  0.6242580386294817  0.7050906851981599
  0.2501961506681908  0.6248660896216208  0.2129217364927855
  0.2500041314774698  0.7499953774093978  0.2958962412007255
  0.0002085397671351  0.8749257315635983  0.2129354037973447
  0.2525621910708957  0.6236728692650961  0.3775184036882268
  0.2499998543076926  0.7499980069841897  0.4595610893041138
 -0.0000063972233817  0.8738106875878948  0.3777430332949450
  0.2496514647002984  0.6250878759327224  0.5413948434951653
  0.2500037928113764  0.7499976460586907  0.6231678426469857
  0.0002238589715915  0.8751403572818682  0.5414106482367262
  0.2483199490186488  0.6258413439562177  0.7050266758311750
  0.2500034480748171  0.7499967276538073  0.7854846008572814
  0.0000768654175292  0.8757366088216749  0.7050901639218662
  0.2498028877287540  0.8751498488161036  0.2129301506720845
  0.2474349528977399  0.8763261313026410  0.3775172106162716
  0.2503609845758140  0.8749033205103895  0.5413902379162856
  0.2516861823657670  0.8741529240209164  0.7050259934101507
  0.7500026922939246 -0.0000034820893119  0.2958197045411757
  0.4998040199852137  0.1250643329396682  0.2129354567979958
  0.7500022314313652 -0.0000016490395471  0.4596031490941695
  0.4999744592164478  0.1262115366955344  0.3777438943880030
  0.7500025804881896 -0.0000032766231616  0.6230862076810887
  0.4997796106469352  0.1248633417276407  0.5414102694362207
  0.7500044467495746 -0.0000042195052791  0.7852324596425032
  0.4999302470531449  0.1242578768829730  0.7050910013343794
  0.7501961786202533  0.1248661226795126  0.2129216560342258
  0.7500038965238436  0.2499957086650645  0.2958967394117583
  0.5002084097572356  0.3749258117529252  0.2129353942953456
  0.7525612795284565  0.1236751524063902  0.3775183893831923
  0.7500000229897255  0.2500065022806313  0.4595620079658846
  0.4999947298028753  0.3738103397570542  0.3777438266592951
  0.7496514924714348  0.1250876849843762  0.5413948205661030
  0.7500024215042248  0.2499965017691539  0.6231689285342722
  0.5002228157314681  0.3751426313828003  0.5414101378452667
  0.7483206647599260  0.1258399655558975  0.7050272343722278
  0.7500038157678517  0.2499962746936469  0.7854853551764250
  0.5000764785959227  0.3757372124391487  0.7050907600371913
  0.7498028380716835  0.3751499188044674  0.2129301187048615
  0.7500029702197922  0.4999960855310323  0.2958201983261387
  0.4998041158248644  0.6250643059897542  0.2129354657646158
  0.7474341287190791  0.3763262794317589  0.3775170340016587
  0.7500008045666944  0.4999971630344106  0.4596038678288220
  0.4999754187252401  0.6262112460420761  0.3777440978132984
  0.7503623645337208  0.3749126962876995  0.5413964491901403
  0.7499897429299853  0.4999998515668526  0.6230828549085086
  0.4997786968544844  0.6248640110410431  0.5414098457810010
  0.7516851955725572  0.3741533671006756  0.7050260487792562
  0.7500042056187525  0.4999962029794977  0.7852330706785964
  0.4999298545566659  0.6242580042541710  0.7050907076275867
  0.7501961852762687  0.6248660659740534  0.2129217011874038
  0.7500041032873414  0.7499953828422220  0.2958962326656528
  0.5002085241558993  0.8749257373334408  0.2129353739145974
  0.7525621502038700  0.6236728840066625  0.3775183970596006
  0.7499998523143268  0.7499979998050762  0.4595610972844471
  0.4999936126582701  0.8738106646306031  0.3777430308952374
  0.7496514704447927  0.6250878736453660  0.5413948600768917
  0.7500037534118470  0.7499976596875009  0.6231678730194277
  0.5002238746745716  0.8751403564761586  0.5414106632017009
  0.7483197913005923  0.6258414230235615  0.7050267134113719
  0.7500036570946373  0.7499966160720855  0.7854846385882135
  0.5000768789526923  0.8757366084459062  0.7050902731820738
  0.7498028859298741  0.8751498470881642  0.2129301169872568
  0.7474349354979234  0.8763261367332627  0.3775171953021855
  0.7503610018769679  0.8749033059151480  0.5413902340126653
  0.7516860560945057  0.8741529784257659  0.7050260144151103
  0.2500028547583094 -0.0000032886475486  0.2145654583053794
  0.2499759487891463  0.0000116562547469  0.3777485498178775
  0.2499976531697359  0.0000083616941161  0.5413551973716393
  0.2500020160918253 -0.0000020984106753  0.7049441694308631
  0.2500048438092329  0.2499958198292231  0.2145935577713753
  0.2499770863557901  0.2500107693210630  0.3777695953473978
  0.2500040279604680  0.2499964637236527  0.5413774912705225
  0.2500036551040320  0.2499963192450070  0.7050176194691596
  0.2500029320550274  0.4999966240456176  0.2145656265970191
  0.2499773614501178  0.5000099780994234  0.3777480607666362
  0.2500024448007838  0.4999951783291933  0.5413541551235407
  0.2500029112200543  0.4999971859238411  0.7049438538355317
  0.2500047115192636  0.7499959352564073  0.2145933785292955
  0.2499759715034102  0.7500109471569791  0.3777680127158217
  0.2499980296388820  0.7500081537634247  0.5413764906359854
  0.2500018407033561  0.7499985131788728  0.7050180659459580
  0.7500028552263337 -0.0000032894585943  0.2145654475071076
  0.7499759437696945  0.0000116573545798  0.3777485443190298
  0.7499976389246656  0.0000083646143691  0.5413551937075866
  0.7500020050520948 -0.0000021023346573  0.7049441604813984
  0.7500048375381325  0.2499958183547112  0.2145935260034534
  0.7499770937011041  0.2500107591986809  0.3777695742554467
  0.7500040339277267  0.2499964596727950  0.5413774858821674
  0.7500036504440140  0.2499963166185172  0.7050176263782468
  0.7500029422392506  0.4999966129517975  0.2145656140571224
  0.7499773489316052  0.5000099779709287  0.3777480537091749
  0.7500024385403812  0.4999951811699256  0.5413541549136139
  0.7500029206922418  0.4999971816887999  0.7049438558647110
  0.7500046998306322  0.7499959368558924  0.2145933691773081
  0.7499759727763071  0.7500109428328908  0.3777680136039410
  0.7499980307091386  0.7500081512322045  0.5413765049872229
  0.7500018418833074  0.7499985110923232  0.7050180922031288
  0.0000018886386222 -0.0000021975184978  0.2946065925373748
  0.0000006927077500 -0.0000004841959048  0.4595473144857055
 -0.0000004024976135 -0.0000001088071138  0.6230254762697784
  0.0000021482080262 -0.0000020925329911  0.7846440082658946
  0.0000019219726236  0.2499981602467665  0.2946445418164059
  0.0000016370950277  0.2499995633659510  0.4595348466230034
  0.0000042481620254  0.2499983971116383  0.6229751234834883
  0.0000023154555287  0.2499978181520968  0.7847230236114274
  0.0000020283475728  0.4999975580272569  0.2946065970434005
  0.0000039139327722  0.4999985197717258  0.4595463621890459
  0.0000035650468474  0.4999993732674028  0.6230263578506920
  0.0000020527849130  0.4999981438671466  0.7846441405914825
  0.0000019808650200  0.7499979905714060  0.2946444614246723
 -0.0000010887321600  0.7499999241952807  0.4595336776180319
  0.0000010964936166  0.7499993186540643  0.6229760853889181
  0.0000018015902015  0.7499984736947367  0.7847230426481538
  0.5000018880897394 -0.0000021952432538  0.2946065901860432
  0.5000006914728492 -0.0000004800539565  0.4595473304078532
  0.4999995970269250 -0.0000001055974323  0.6230254856618020
  0.5000021505190945 -0.0000020926352483  0.7846440055152606
  0.5000019231090461  0.2499981618204946  0.2946445383933097
  0.5000016336534981  0.2499995639353821  0.4595348425373448
  0.5000042425845220  0.2499983947323665  0.6229751284747050
  0.5000023030362113  0.2499978218303381  0.7847230131766559
  0.5000020292300618  0.4999975572818601  0.2946065986066775
  0.5000039094930315  0.4999985220476523  0.4595463684179414
  0.5000035628714077  0.4999993774723075  0.6230263650384402
  0.5000020506618641  0.4999981395546039  0.7846441225459010
  0.5000019805814420  0.7499979881840586  0.2946444623118431
  0.4999989119138291  0.7499999229967870  0.4595336625258850
  0.5000011008499123  0.7499993177541788  0.6229760868860821
  0.5000018169505785  0.7499984729581058  0.7847230288304493
 
  0.00000000E+00  0.00000000E+00  0.00000000E+00
  0.00000000E+00  0.00000000E+00  0.00000000E+00
  0.00000000E+00  0.00000000E+00  0.00000000E+00
  0.00000000E+00  0.00000000E+00  0.00000000E+00
  0.00000000E+00  0.00000000E+00  0.00000000E+00
  0.00000000E+00  0.00000000E+00  0.00000000E+00
  0.00000000E+00  0.00000000E+00  0.00000000E+00
  0.00000000E+00  0.00000000E+00  0.00000000E+00
  0.00000000E+00  0.00000000E+00  0.00000000E+00
  0.00000000E+00  0.00000000E+00  0.00000000E+00
  0.00000000E+00  0.00000000E+00  0.00000000E+00
  0.00000000E+00  0.00000000E+00  0.00000000E+00
  0.00000000E+00  0.00000000E+00  0.00000000E+00
  0.00000000E+00  0.00000000E+00  0.00000000E+00
  0.00000000E+00  0.00000000E+00  0.00000000E+00
  0.00000000E+00  0.00000000E+00  0.00000000E+00
  0.00000000E+00  0.00000000E+00  0.00000000E+00
  0.00000000E+00  0.00000000E+00  0.00000000E+00
  0.00000000E+00  0.00000000E+00  0.00000000E+00
  0.00000000E+00  0.00000000E+00  0.00000000E+00
  0.00000000E+00  0.00000000E+00  0.00000000E+00
  0.00000000E+00  0.00000000E+00  0.00000000E+00
  0.00000000E+00  0.00000000E+00  0.00000000E+00
  0.00000000E+00  0.00000000E+00  0.00000000E+00
  0.00000000E+00  0.00000000E+00  0.00000000E+00
  0.00000000E+00  0.00000000E+00  0.00000000E+00
  0.00000000E+00  0.00000000E+00  0.00000000E+00
  0.00000000E+00  0.00000000E+00  0.00000000E+00
  0.00000000E+00  0.00000000E+00  0.00000000E+00
  0.00000000E+00  0.00000000E+00  0.00000000E+00
  0.00000000E+00  0.00000000E+00  0.00000000E+00
  0.00000000E+00  0.00000000E+00  0.00000000E+00
  0.00000000E+00  0.00000000E+00  0.00000000E+00
  0.00000000E+00  0.00000000E+00  0.00000000E+00
  0.00000000E+00  0.00000000E+00  0.00000000E+00
  0.00000000E+00  0.00000000E+00  0.00000000E+00
  0.00000000E+00  0.00000000E+00  0.00000000E+00
  0.00000000E+00  0.00000000E+00  0.00000000E+00
  0.00000000E+00  0.00000000E+00  0.00000000E+00
  0.00000000E+00  0.00000000E+00  0.00000000E+00
  0.00000000E+00  0.00000000E+00  0.00000000E+00
  0.00000000E+00  0.00000000E+00  0.00000000E+00
  0.00000000E+00  0.00000000E+00  0.00000000E+00
  0.00000000E+00  0.00000000E+00  0.00000000E+00
  0.00000000E+00  0.00000000E+00  0.00000000E+00
  0.00000000E+00  0.00000000E+00  0.00000000E+00
  0.00000000E+00  0.00000000E+00  0.00000000E+00
  0.00000000E+00  0.00000000E+00  0.00000000E+00
  0.00000000E+00  0.00000000E+00  0.00000000E+00
  0.00000000E+00  0.00000000E+00  0.00000000E+00
  0.00000000E+00  0.00000000E+00  0.00000000E+00
  0.00000000E+00  0.00000000E+00  0.00000000E+00
  0.00000000E+00  0.00000000E+00  0.00000000E+00
  0.00000000E+00  0.00000000E+00  0.00000000E+00
  0.00000000E+00  0.00000000E+00  0.00000000E+00
  0.00000000E+00  0.00000000E+00  0.00000000E+00
  0.00000000E+00  0.00000000E+00  0.00000000E+00
  0.00000000E+00  0.00000000E+00  0.00000000E+00
  0.00000000E+00  0.00000000E+00  0.00000000E+00
  0.00000000E+00  0.00000000E+00  0.00000000E+00
  0.00000000E+00  0.00000000E+00  0.00000000E+00
  0.00000000E+00  0.00000000E+00  0.00000000E+00
  0.00000000E+00  0.00000000E+00  0.00000000E+00
  0.00000000E+00  0.00000000E+00  0.00000000E+00
  0.00000000E+00  0.00000000E+00  0.00000000E+00
  0.00000000E+00  0.00000000E+00  0.00000000E+00
  0.00000000E+00  0.00000000E+00  0.00000000E+00
  0.00000000E+00  0.00000000E+00  0.00000000E+00
  0.00000000E+00  0.00000000E+00  0.00000000E+00
  0.00000000E+00  0.00000000E+00  0.00000000E+00
  0.00000000E+00  0.00000000E+00  0.00000000E+00
  0.00000000E+00  0.00000000E+00  0.00000000E+00
  0.00000000E+00  0.00000000E+00  0.00000000E+00
  0.00000000E+00  0.00000000E+00  0.00000000E+00
  0.00000000E+00  0.00000000E+00  0.00000000E+00
  0.00000000E+00  0.00000000E+00  0.00000000E+00
  0.00000000E+00  0.00000000E+00  0.00000000E+00
  0.00000000E+00  0.00000000E+00  0.00000000E+00
  0.00000000E+00  0.00000000E+00  0.00000000E+00
  0.00000000E+00  0.00000000E+00  0.00000000E+00
  0.00000000E+00  0.00000000E+00  0.00000000E+00
  0.00000000E+00  0.00000000E+00  0.00000000E+00
  0.00000000E+00  0.00000000E+00  0.00000000E+00
  0.00000000E+00  0.00000000E+00  0.00000000E+00
  0.00000000E+00  0.00000000E+00  0.00000000E+00
  0.00000000E+00  0.00000000E+00  0.00000000E+00
  0.00000000E+00  0.00000000E+00  0.00000000E+00
  0.00000000E+00  0.00000000E+00  0.00000000E+00
  0.00000000E+00  0.00000000E+00  0.00000000E+00
  0.00000000E+00  0.00000000E+00  0.00000000E+00
  0.00000000E+00  0.00000000E+00  0.00000000E+00
  0.00000000E+00  0.00000000E+00  0.00000000E+00
  0.00000000E+00  0.00000000E+00  0.00000000E+00
  0.00000000E+00  0.00000000E+00  0.00000000E+00
  0.00000000E+00  0.00000000E+00  0.00000000E+00
  0.00000000E+00  0.00000000E+00  0.00000000E+00
  0.00000000E+00  0.00000000E+00  0.00000000E+00
  0.00000000E+00  0.00000000E+00  0.00000000E+00
  0.00000000E+00  0.00000000E+00  0.00000000E+00
  0.00000000E+00  0.00000000E+00  0.00000000E+00
  0.00000000E+00  0.00000000E+00  0.00000000E+00
  0.00000000E+00  0.00000000E+00  0.00000000E+00
  0.00000000E+00  0.00000000E+00  0.00000000E+00
  0.00000000E+00  0.00000000E+00  0.00000000E+00
  0.00000000E+00  0.00000000E+00  0.00000000E+00
  0.00000000E+00  0.00000000E+00  0.00000000E+00
  0.00000000E+00  0.00000000E+00  0.00000000E+00
  0.00000000E+00  0.00000000E+00  0.00000000E+00
  0.00000000E+00  0.00000000E+00  0.00000000E+00
  0.00000000E+00  0.00000000E+00  0.00000000E+00
  0.00000000E+00  0.00000000E+00  0.00000000E+00
  0.00000000E+00  0.00000000E+00  0.00000000E+00
  0.00000000E+00  0.00000000E+00  0.00000000E+00
  0.00000000E+00  0.00000000E+00  0.00000000E+00
  0.00000000E+00  0.00000000E+00  0.00000000E+00
  0.00000000E+00  0.00000000E+00  0.00000000E+00
  0.00000000E+00  0.00000000E+00  0.00000000E+00
  0.00000000E+00  0.00000000E+00  0.00000000E+00
  0.00000000E+00  0.00000000E+00  0.00000000E+00
  0.00000000E+00  0.00000000E+00  0.00000000E+00
  0.00000000E+00  0.00000000E+00  0.00000000E+00
  0.00000000E+00  0.00000000E+00  0.00000000E+00
  0.00000000E+00  0.00000000E+00  0.00000000E+00
  0.00000000E+00  0.00000000E+00  0.00000000E+00
  0.00000000E+00  0.00000000E+00  0.00000000E+00
  0.00000000E+00  0.00000000E+00  0.00000000E+00
  0.00000000E+00  0.00000000E+00  0.00000000E+00
  0.00000000E+00  0.00000000E+00  0.00000000E+00
  0.00000000E+00  0.00000000E+00  0.00000000E+00
  0.00000000E+00  0.00000000E+00  0.00000000E+00
  0.00000000E+00  0.00000000E+00  0.00000000E+00
  0.00000000E+00  0.00000000E+00  0.00000000E+00
  0.00000000E+00  0.00000000E+00  0.00000000E+00
  0.00000000E+00  0.00000000E+00  0.00000000E+00
  0.00000000E+00  0.00000000E+00  0.00000000E+00
  0.00000000E+00  0.00000000E+00  0.00000000E+00
  0.00000000E+00  0.00000000E+00  0.00000000E+00
  0.00000000E+00  0.00000000E+00  0.00000000E+00
  0.00000000E+00  0.00000000E+00  0.00000000E+00
  0.00000000E+00  0.00000000E+00  0.00000000E+00
  0.00000000E+00  0.00000000E+00  0.00000000E+00
  0.00000000E+00  0.00000000E+00  0.00000000E+00
  0.00000000E+00  0.00000000E+00  0.00000000E+00
  0.00000000E+00  0.00000000E+00  0.00000000E+00
  0.00000000E+00  0.00000000E+00  0.00000000E+00
  0.00000000E+00  0.00000000E+00  0.00000000E+00
  0.00000000E+00  0.00000000E+00  0.00000000E+00
  0.00000000E+00  0.00000000E+00  0.00000000E+00
  0.00000000E+00  0.00000000E+00  0.00000000E+00
  0.00000000E+00  0.00000000E+00  0.00000000E+00
  0.00000000E+00  0.00000000E+00  0.00000000E+00
  0.00000000E+00  0.00000000E+00  0.00000000E+00
  0.00000000E+00  0.00000000E+00  0.00000000E+00
  0.00000000E+00  0.00000000E+00  0.00000000E+00
  0.00000000E+00  0.00000000E+00  0.00000000E+00
  0.00000000E+00  0.00000000E+00  0.00000000E+00
  0.00000000E+00  0.00000000E+00  0.00000000E+00
  0.00000000E+00  0.00000000E+00  0.00000000E+00
  0.00000000E+00  0.00000000E+00  0.00000000E+00
  0.00000000E+00  0.00000000E+00  0.00000000E+00
