Na  O Cl 
 1.0000000000000000
     4.4960000000000004    0.0000000000000000    0.0000000000000000
     0.0000000000000000    4.4960000000000004    0.0000000000000000
     0.0000000000000000    0.0000000000000000    4.4960000000000004
 Na  O   Cl 
   3   1   1
Cartesian
  2.2480000000000002  2.2480000000000002  0.0000000000000000
  0.0000000000000000  2.2480000000000002  2.2480000000000002
  2.2480000000000002  0.0000000000000000  2.2480000000000002
  2.2480000000000002  2.2480000000000002  2.2480000000000002
  0.0000000000000000  0.0000000000000000  0.0000000000000000
