Na  O Cl                                
   1.00000000000000     
    -3.1518425247742479   -3.1518425247742479    0.0000000000000000
     4.4573784449999989   -4.4573784449999989    0.0000000000000000
    16.2856938188696461  -16.2856938188696461   23.0314490713011359
   Na   O    Cl
    12     4     4
Direct
  0.5000001744298856  0.4999998255701144  0.2605133520441996
  0.0000001000000012  0.4999998255701144  0.3289381173335926
  0.5000001744298856  0.9999998999999988  0.2605133520441996
  0.5000001744298856  0.4999998255701144  0.3973628622516046
  0.0000001000000012  0.4999998255701144  0.4657876275409976
  0.5000001744298856  0.0000001000000012  0.3973628622516046
  0.5000001744298856  0.4999998255701144  0.5342123724590024
  0.0000001000000012  0.4999998255701144  0.6026371377483954
  0.5000001744298856  0.9999998999999988  0.5342123724590024
  0.5000001744298856  0.4999998255701144  0.6710618826664074
  0.0000001000000012  0.4999998255701144  0.7394866479558004
  0.5000001744298856  0.0000001000000012  0.6710618826664074
  0.5000001744298856  0.4999998255701144  0.3289381173335926
  0.5000001744298856  0.4999998255701144  0.4657876275409976
  0.5000001744298856  0.4999998255701144  0.6026371377483954
  0.5000001744298856  0.4999998255701144  0.7394866479558004
  0.0000001000000012  0.9999998999999988  0.3289380969622115
  0.0000001000000012  0.0000001000000012  0.4657876071696094
  0.0000001000000012  0.9999998999999988  0.6026371173770144
  0.0000001000000012  0.9999998999999988  0.7394866275844123
 
  0.00000000E+00  0.00000000E+00  0.00000000E+00
  0.00000000E+00  0.00000000E+00  0.00000000E+00
  0.00000000E+00  0.00000000E+00  0.00000000E+00
  0.00000000E+00  0.00000000E+00  0.00000000E+00
  0.00000000E+00  0.00000000E+00  0.00000000E+00
  0.00000000E+00  0.00000000E+00  0.00000000E+00
  0.00000000E+00  0.00000000E+00  0.00000000E+00
  0.00000000E+00  0.00000000E+00  0.00000000E+00
  0.00000000E+00  0.00000000E+00  0.00000000E+00
  0.00000000E+00  0.00000000E+00  0.00000000E+00
  0.00000000E+00  0.00000000E+00  0.00000000E+00
  0.00000000E+00  0.00000000E+00  0.00000000E+00
  0.00000000E+00  0.00000000E+00  0.00000000E+00
  0.00000000E+00  0.00000000E+00  0.00000000E+00
  0.00000000E+00  0.00000000E+00  0.00000000E+00
  0.00000000E+00  0.00000000E+00  0.00000000E+00
  0.00000000E+00  0.00000000E+00  0.00000000E+00
  0.00000000E+00  0.00000000E+00  0.00000000E+00
  0.00000000E+00  0.00000000E+00  0.00000000E+00
  0.00000000E+00  0.00000000E+00  0.00000000E+00
