Na  O Cl 
 1.0000000000000000
    -3.1518425247742479   -3.1518425247742479    0.0000000000000000
     4.4573784449999989   -4.4573784449999989    0.0000000000000000
    16.2856938188696461  -16.2856938188696461   23.0314490713011359
 Na  O   Cl 
  12   4   4
Cartesian
  4.8954073199566377 -8.0472509442819309  5.9999999999999991
  7.5856735940661082 -7.5856742244346140  7.5759214969783928
  7.1240968742187922 -10.2759404985440845  5.9999999999999991
  7.1240965424566358 -10.2759401667819290  9.1518425247742474
  9.8143628165661081 -9.8143634469346139 10.7277640217526411
  4.8954085431944812 -8.0472521675197743  9.1518425247742456
  9.3527857649566357 -12.5046293892819307 12.3036850495484948
 12.0430520390661080 -12.0430526694346138 13.8796065465268885
 11.5814753192187894 -14.7333189435440808 12.3036850495484948
 11.5814749874566374 -14.7333186117819324 15.4555275743227440
 14.2717412615661061 -14.2717418919346137 17.0314490713011359
  9.3527869881944810 -12.5046306125197759 15.4555275743227440
  6.0097520970877145 -9.1615957214130077  7.5759214969783928
  8.2384413195877144 -11.3902849439130094 10.7277640217526411
 10.4671305420877143 -13.6189741664130075 13.8796065465268885
 12.6958197645877142 -15.8476633889130092 17.0314490713011359
  9.8143628165661099 -9.8143634469346139  7.5759210277958537
  7.5856744855417979 -7.5856751159103037 10.7277635525701029
 14.2717412615661097 -14.2717418919346137 13.8796060773443521
 16.5004304840661042 -16.5004311144346119 17.0314486021185978
