Na                                      
   1.00000000000000     
    -8.8998977204543976    8.8998977204543976    0.0000000000000000
   -17.7997954409087953   -0.0000000000000006    0.0000000000000000
     0.0000000000000000    0.0000000000000000   35.0749822116460592
   Na
   108
Direct
  0.0001452798438754 -0.0000675379606870  0.2351800252914055
 -0.0002632715695225  0.1670357269089197  0.1779790941902529
  0.0002289735008962 -0.0001427838830757  0.3518155824839060
  0.0003126595381731  0.1665161220623401  0.2910839558254854
 -0.0001878491265611  0.0001304801708980  0.4704208454947653
 -0.0000199618216232  0.1666925888335470  0.4119566166412398
 -0.0002726969547426  0.0002649439147760  0.5880500506047857
 -0.0002291418936569  0.1668575725102223  0.5296492199392295
 -0.0001440009943780  0.0000938915338229  0.7088140328546421
 -0.0000332449628482  0.1668400973878249  0.6482148307949117
 -0.0002680327827293  0.0002196797316662  0.8217801263558568
 -0.0000352406650117  0.1666510224462259  0.7647765091643519
  0.3327678693964075 -0.0009774249958412  0.2354402713440415
  0.3338329967783650  0.1658722632231883  0.1780626459705701
  0.3322723844763803 -0.0008187809848254  0.3521177084888003
  0.3342910047482407  0.1646477562956263  0.2918531285362910
  0.3336236798572748 -0.0018114788563172  0.4699975498837662
  0.3333704026926543  0.1652003418377973  0.4113810424852151
  0.3325694825143753 -0.0009697957001902  0.5885566375165668
  0.3336006979961925  0.1648058957308523  0.5300542532978448
  0.3340410107681784 -0.0019096959994479  0.7081092598057589
  0.3324150704074089  0.1655602491640701  0.6477674937359150
  0.3341569418839095 -0.0008627121079499  0.8219149129763461
  0.3331019801329050  0.1655161364583108  0.7644105537922996
  0.0001372483859525  0.3332615978150382  0.2351672922152949
 -0.0003680822083045  0.5005538101516956  0.1780286791442147
  0.0000777572941608  0.3333087635829565  0.3518453340409765
  0.0003174388970631  0.4998746950417753  0.2910816298370367
 -0.0001243034181044  0.3334641383734858  0.4703614168533161
  0.0001022574703993  0.4999962643149516  0.4119626638384692
 -0.0002490853315567  0.3335637264874122  0.5880698025970811
 -0.0002176337398907  0.5002454793846550  0.5296091415543968
 -0.0000171999381061  0.3333429207839285  0.7087651530604797
 -0.0002613966100302  0.5002891968707711  0.6482568838884873
  0.0000360119070257  0.3333125612457282  0.8218078876129378
  0.0000216239735366  0.4999761779311208  0.7647988920691151
  0.6674427959415287  0.0010353162784830  0.2354276153132720
  0.6658273901397024  0.1676090336301175  0.1780951620588019
  0.6681018952920338  0.0005644914288904  0.3521118716620172
  0.6658900754685375  0.1684246556502202  0.2918884644518927
  0.6660329843223145  0.0018921600938960  0.4699699042581513
  0.6668526736996413  0.1678648052976382  0.4114203131543213
  0.6666374649400347  0.0011447565764019  0.5886788104854376
  0.6659873979699799  0.1686111775980974  0.5301076617664899
  0.6660026349374262  0.0017135774143604  0.7081096288916154
  0.6678986345566560  0.1673901024546427  0.6479311313267935
  0.6661473917701181  0.0006418498320111  0.8219611344851312
  0.6667481693926276  0.1677533757467213  0.7645662393283655
  0.3327431454208085  0.3323532573541629  0.2354476218126101
  0.3344156980201333  0.4988985842890179  0.1781381135156935
  0.3323186863776936  0.3325084845869516  0.3521234230537174
  0.3346001082005066  0.4979287960508736  0.2917986188210130
  0.3337696385951055  0.3314335971944127  0.4699087216059631
  0.3337700620143638  0.4987269087279539  0.4114590324157615
  0.3329126508977369  0.3320661301996464  0.5886510303703899
  0.3338257367544331  0.4979283901255840  0.5300322129383078
  0.3340633634470569  0.3315346487792743  0.7081401045660740
  0.3323797492928901  0.4989272729969459  0.6478837378621091
  0.3339889227971950  0.3325722292180909  0.8219144151509740
  0.3329203383068172  0.4989141984871138  0.7645485702874905
  0.0001022981971949  0.6666809398798994  0.2352008809521716
 -0.0004525710337161  0.8338004200287686  0.1780346616751198
  0.0003767935410058  0.6664287501520091  0.3518365463692715
  0.0003432562505635  0.8330868112886335  0.2911272267732696
 -0.0001526613435488  0.6667193221017682  0.4703937575636151
  0.0001998552108090  0.8331959732043350  0.4120075769551708
 -0.0001123295083356  0.6669150460415972  0.5880429433203512
 -0.0001059693251657  0.8335555244238003  0.5296631255316528
  0.0001830864809389  0.6667184851430776  0.7088530595714223
 -0.0001499092950398  0.8335488916917165  0.6482066119572021
 -0.0003095293895122  0.6667715045082268  0.8218001419681892
  0.0000661386133063  0.8332849927986238  0.7647628156489293
  0.6675418621500069  0.3342784615435169  0.2354604563224957
  0.6659148239207632  0.5010078177797112  0.1781015210165340
  0.6681108546115239  0.3340664393007353  0.3520774843032135
  0.6658755901475684  0.5018765197141213  0.2919180992114414
  0.6663062065628526  0.3351996359213866  0.4699769435352762
  0.6667391083474480  0.5013643192170461  0.4114313077033496
  0.6666463934175302  0.3342459397939078  0.5887134749714245
  0.6660280487533581  0.5019167478538789  0.5300939078236342
  0.6661913381638872  0.3349001416667040  0.7081816336601020
  0.6678111502732045  0.5007037068816410  0.6479028499016404
  0.6660453789711404  0.3342240678170911  0.8219119823417773
  0.6670265731120809  0.5010440215933628  0.7645299995493962
  0.3329202334975696  0.6657411545199234  0.2354946612828008
  0.3340734853727257  0.8323764112721872  0.1780770668441333
  0.3324370235493617  0.6657638381456999  0.3521137662942584
  0.3345023961831317  0.8313015264116200  0.2918140919701094
  0.3334543533602664  0.6650104419654735  0.4700292742479343
  0.3334326578960843  0.8319600858301387  0.4114254530861438
  0.3329317074744448  0.6654236486476042  0.5886471072670487
  0.3337650215868976  0.8313931097177540  0.5300070809491731
  0.3340087004435670  0.6649355449172479  0.7081036636307828
  0.3320073999275674  0.8325043555151002  0.6478006537236642
  0.3340767093433989  0.6658018555307564  0.8219373716380933
  0.3329512245445094  0.8322403592136309  0.7645104988709486
  0.6674684216885193  0.6677160950120566  0.2354530071469650
  0.6658689047622006  0.8342538391199964  0.1780992055577082
  0.6680401700956154  0.6673974938563780  0.3521192159260434
  0.6657319617494385  0.8351149274089512  0.2919227033675665
  0.6661873548624095  0.6685986360363302  0.4700037717768109
  0.6668152392122338  0.8346118382725828  0.4114239115095873
  0.6665238573678314  0.6677833810859118  0.5886733107503453
  0.6661319480703519  0.8350880874724359  0.5301181411046860
  0.6658574291192630  0.6684172319030437  0.7081549387419362
  0.6677835448279421  0.8340618358370154  0.6479107842704219
  0.6661544467561353  0.6673862654291369  0.8219558675993482
  0.6666407824770203  0.8346307668167138  0.7645207800483281
 
  0.00000000E+00  0.00000000E+00  0.00000000E+00
  0.00000000E+00  0.00000000E+00  0.00000000E+00
  0.00000000E+00  0.00000000E+00  0.00000000E+00
  0.00000000E+00  0.00000000E+00  0.00000000E+00
  0.00000000E+00  0.00000000E+00  0.00000000E+00
  0.00000000E+00  0.00000000E+00  0.00000000E+00
  0.00000000E+00  0.00000000E+00  0.00000000E+00
  0.00000000E+00  0.00000000E+00  0.00000000E+00
  0.00000000E+00  0.00000000E+00  0.00000000E+00
  0.00000000E+00  0.00000000E+00  0.00000000E+00
  0.00000000E+00  0.00000000E+00  0.00000000E+00
  0.00000000E+00  0.00000000E+00  0.00000000E+00
  0.00000000E+00  0.00000000E+00  0.00000000E+00
  0.00000000E+00  0.00000000E+00  0.00000000E+00
  0.00000000E+00  0.00000000E+00  0.00000000E+00
  0.00000000E+00  0.00000000E+00  0.00000000E+00
  0.00000000E+00  0.00000000E+00  0.00000000E+00
  0.00000000E+00  0.00000000E+00  0.00000000E+00
  0.00000000E+00  0.00000000E+00  0.00000000E+00
  0.00000000E+00  0.00000000E+00  0.00000000E+00
  0.00000000E+00  0.00000000E+00  0.00000000E+00
  0.00000000E+00  0.00000000E+00  0.00000000E+00
  0.00000000E+00  0.00000000E+00  0.00000000E+00
  0.00000000E+00  0.00000000E+00  0.00000000E+00
  0.00000000E+00  0.00000000E+00  0.00000000E+00
  0.00000000E+00  0.00000000E+00  0.00000000E+00
  0.00000000E+00  0.00000000E+00  0.00000000E+00
  0.00000000E+00  0.00000000E+00  0.00000000E+00
  0.00000000E+00  0.00000000E+00  0.00000000E+00
  0.00000000E+00  0.00000000E+00  0.00000000E+00
  0.00000000E+00  0.00000000E+00  0.00000000E+00
  0.00000000E+00  0.00000000E+00  0.00000000E+00
  0.00000000E+00  0.00000000E+00  0.00000000E+00
  0.00000000E+00  0.00000000E+00  0.00000000E+00
  0.00000000E+00  0.00000000E+00  0.00000000E+00
  0.00000000E+00  0.00000000E+00  0.00000000E+00
  0.00000000E+00  0.00000000E+00  0.00000000E+00
  0.00000000E+00  0.00000000E+00  0.00000000E+00
  0.00000000E+00  0.00000000E+00  0.00000000E+00
  0.00000000E+00  0.00000000E+00  0.00000000E+00
  0.00000000E+00  0.00000000E+00  0.00000000E+00
  0.00000000E+00  0.00000000E+00  0.00000000E+00
  0.00000000E+00  0.00000000E+00  0.00000000E+00
  0.00000000E+00  0.00000000E+00  0.00000000E+00
  0.00000000E+00  0.00000000E+00  0.00000000E+00
  0.00000000E+00  0.00000000E+00  0.00000000E+00
  0.00000000E+00  0.00000000E+00  0.00000000E+00
  0.00000000E+00  0.00000000E+00  0.00000000E+00
  0.00000000E+00  0.00000000E+00  0.00000000E+00
  0.00000000E+00  0.00000000E+00  0.00000000E+00
  0.00000000E+00  0.00000000E+00  0.00000000E+00
  0.00000000E+00  0.00000000E+00  0.00000000E+00
  0.00000000E+00  0.00000000E+00  0.00000000E+00
  0.00000000E+00  0.00000000E+00  0.00000000E+00
  0.00000000E+00  0.00000000E+00  0.00000000E+00
  0.00000000E+00  0.00000000E+00  0.00000000E+00
  0.00000000E+00  0.00000000E+00  0.00000000E+00
  0.00000000E+00  0.00000000E+00  0.00000000E+00
  0.00000000E+00  0.00000000E+00  0.00000000E+00
  0.00000000E+00  0.00000000E+00  0.00000000E+00
  0.00000000E+00  0.00000000E+00  0.00000000E+00
  0.00000000E+00  0.00000000E+00  0.00000000E+00
  0.00000000E+00  0.00000000E+00  0.00000000E+00
  0.00000000E+00  0.00000000E+00  0.00000000E+00
  0.00000000E+00  0.00000000E+00  0.00000000E+00
  0.00000000E+00  0.00000000E+00  0.00000000E+00
  0.00000000E+00  0.00000000E+00  0.00000000E+00
  0.00000000E+00  0.00000000E+00  0.00000000E+00
  0.00000000E+00  0.00000000E+00  0.00000000E+00
  0.00000000E+00  0.00000000E+00  0.00000000E+00
  0.00000000E+00  0.00000000E+00  0.00000000E+00
  0.00000000E+00  0.00000000E+00  0.00000000E+00
  0.00000000E+00  0.00000000E+00  0.00000000E+00
  0.00000000E+00  0.00000000E+00  0.00000000E+00
  0.00000000E+00  0.00000000E+00  0.00000000E+00
  0.00000000E+00  0.00000000E+00  0.00000000E+00
  0.00000000E+00  0.00000000E+00  0.00000000E+00
  0.00000000E+00  0.00000000E+00  0.00000000E+00
  0.00000000E+00  0.00000000E+00  0.00000000E+00
  0.00000000E+00  0.00000000E+00  0.00000000E+00
  0.00000000E+00  0.00000000E+00  0.00000000E+00
  0.00000000E+00  0.00000000E+00  0.00000000E+00
  0.00000000E+00  0.00000000E+00  0.00000000E+00
  0.00000000E+00  0.00000000E+00  0.00000000E+00
  0.00000000E+00  0.00000000E+00  0.00000000E+00
  0.00000000E+00  0.00000000E+00  0.00000000E+00
  0.00000000E+00  0.00000000E+00  0.00000000E+00
  0.00000000E+00  0.00000000E+00  0.00000000E+00
  0.00000000E+00  0.00000000E+00  0.00000000E+00
  0.00000000E+00  0.00000000E+00  0.00000000E+00
  0.00000000E+00  0.00000000E+00  0.00000000E+00
  0.00000000E+00  0.00000000E+00  0.00000000E+00
  0.00000000E+00  0.00000000E+00  0.00000000E+00
  0.00000000E+00  0.00000000E+00  0.00000000E+00
  0.00000000E+00  0.00000000E+00  0.00000000E+00
  0.00000000E+00  0.00000000E+00  0.00000000E+00
  0.00000000E+00  0.00000000E+00  0.00000000E+00
  0.00000000E+00  0.00000000E+00  0.00000000E+00
  0.00000000E+00  0.00000000E+00  0.00000000E+00
  0.00000000E+00  0.00000000E+00  0.00000000E+00
  0.00000000E+00  0.00000000E+00  0.00000000E+00
  0.00000000E+00  0.00000000E+00  0.00000000E+00
  0.00000000E+00  0.00000000E+00  0.00000000E+00
  0.00000000E+00  0.00000000E+00  0.00000000E+00
  0.00000000E+00  0.00000000E+00  0.00000000E+00
  0.00000000E+00  0.00000000E+00  0.00000000E+00
  0.00000000E+00  0.00000000E+00  0.00000000E+00
  0.00000000E+00  0.00000000E+00  0.00000000E+00
