Na 
 1.0000000000000000
    -8.8998977204543976    8.8998977204543976    0.0000000000000000
   -17.7997954409087953   -0.0000000000000006    0.0000000000000000
     0.0000000000000000    0.0000000000000000   35.0749822116460592
 Na 
 108
Cartesian
 -0.0000005933265147 -0.0000000000000000  8.0977221162195825
 -2.9666382100866886  0.0000000000000001  5.9999999999999982
 -0.0000005933265147 -0.0000000000000000 12.2931744159047405
 -2.9666382100866886  0.0000000000000001 10.1954519489353270
 -0.0000005933265147 -0.0000000000000000 16.4886263648400657
 -2.9666382100866886  0.0000000000000001 14.3909038978706558
 -0.0000005933265147 -0.0000000000000000 20.6840783137753945
 -2.9666382100866886  0.0000000000000001 18.5863558468059864
 -0.0000005933265147 -0.0000000000000000 24.8795302627107233
 -2.9666382100866886  0.0000000000000001 22.7818077957413152
 -0.0000005933265147 -0.0000000000000000 29.0749822116460592
 -2.9666382100866886  0.0000000000000001 26.9772600954264661
 -2.9666331668113139  2.9666325734847994  8.0977221162195825
 -5.9332707835714880  2.9666325734847994  5.9999999999999982
 -2.9666331668113139  2.9666325734847994 12.2931744159047405
 -5.9332707835714880  2.9666325734847994 10.1954519489353270
 -2.9666331668113139  2.9666325734847994 16.4886263648400657
 -5.9332707835714880  2.9666325734847994 14.3909038978706558
 -2.9666331668113139  2.9666325734847994 20.6840783137753945
 -5.9332707835714880  2.9666325734847994 18.5863558468059864
 -2.9666331668113139  2.9666325734847994 24.8795302627107233
 -5.9332707835714880  2.9666325734847994 22.7818077957413152
 -2.9666331668113139  2.9666325734847994 29.0749822116460592
 -5.9332707835714880  2.9666325734847994 26.9772600954264661
 -14.8331634607505087  8.8998977204543941  8.0977221162195825
 -8.8999033570562869  0.0000000000000002  5.9999999999999982
 -14.8331634607505087  8.8998977204543941 12.2931744159047405
 -8.8999033570562869  0.0000000000000002 10.1954519489353270
 -14.8331634607505087  8.8998977204543941 16.4886263648400657
 -8.8999033570562869  0.0000000000000002 14.3909038978706558
 -14.8331634607505087  8.8998977204543941 20.6840783137753945
 -8.8999033570562869  0.0000000000000002 18.5863558468059864
 -14.8331634607505087  8.8998977204543941 24.8795302627107233
 -8.8999033570562869  0.0000000000000002 22.7818077957413152
 -14.8331634607505087  8.8998977204543941 29.0749822116460592
 -8.8999033570562869  0.0000000000000002 26.9772600954264661
 -5.9332657402961129  5.9332651469695987  8.0977221162195825
 -8.8999033570562869  5.9332651469695987  5.9999999999999982
 -5.9332657402961129  5.9332651469695987 12.2931744159047405
 -8.8999033570562869  5.9332651469695987 10.1954519489353270
 -5.9332657402961129  5.9332651469695987 16.4886263648400657
 -8.8999033570562869  5.9332651469695987 14.3909038978706558
 -5.9332657402961129  5.9332651469695987 20.6840783137753945
 -8.8999033570562869  5.9332651469695987 18.5863558468059864
 -5.9332657402961129  5.9332651469695987 24.8795302627107233
 -8.8999033570562869  5.9332651469695987 22.7818077957413152
 -5.9332657402961129  5.9332651469695987 29.0749822116460592
 -8.8999033570562869  5.9332651469695987 26.9772600954264661
 -8.8998983137809127  2.9666325734847985  8.0977221162195825
 -11.8665359305410867  2.9666325734847994  5.9999999999999982
 -8.8998983137809127  2.9666325734847985 12.2931744159047405
 -11.8665359305410867  2.9666325734847994 10.1954519489353270
 -8.8998983137809127  2.9666325734847985 16.4886263648400657
 -11.8665359305410867  2.9666325734847994 14.3909038978706558
 -8.8998983137809127  2.9666325734847985 20.6840783137753945
 -11.8665359305410867  2.9666325734847994 18.5863558468059864
 -8.8998983137809127  2.9666325734847985 24.8795302627107233
 -11.8665359305410867  2.9666325734847994 22.7818077957413152
 -8.8998983137809127  2.9666325734847985 29.0749822116460592
 -11.8665359305410867  2.9666325734847994 26.9772600954264661
 -11.8665308872657125 -0.0000000000000004  8.0977221162195825
 -23.7330662244802824  8.8998977204543941  5.9999999999999982
 -11.8665308872657125 -0.0000000000000004 12.2931744159047405
 -23.7330662244802824  8.8998977204543941 10.1954519489353270
 -11.8665308872657125 -0.0000000000000004 16.4886263648400657
 -23.7330662244802824  8.8998977204543941 14.3909038978706558
 -11.8665308872657125 -0.0000000000000004 20.6840783137753945
 -23.7330662244802824  8.8998977204543941 18.5863558468059864
 -11.8665308872657125 -0.0000000000000004 24.8795302627107233
 -23.7330662244802824  8.8998977204543941 22.7818077957413152
 -11.8665308872657125 -0.0000000000000004 29.0749822116460592
 -23.7330662244802824  8.8998977204543941 26.9772600954264661
 -11.8665308872657125  5.9332651469695969  8.0977221162195825
 -14.8331685040258829  5.9332651469695969  5.9999999999999982
 -11.8665308872657125  5.9332651469695969 12.2931744159047405
 -14.8331685040258829  5.9332651469695969 10.1954519489353270
 -11.8665308872657125  5.9332651469695969 16.4886263648400657
 -14.8331685040258829  5.9332651469695969 14.3909038978706558
 -11.8665308872657125  5.9332651469695969 20.6840783137753945
 -14.8331685040258829  5.9332651469695969 18.5863558468059864
 -11.8665308872657125  5.9332651469695969 24.8795302627107233
 -14.8331685040258829  5.9332651469695969 22.7818077957413152
 -11.8665308872657125  5.9332651469695969 29.0749822116460592
 -14.8331685040258829  5.9332651469695969 26.9772600954264661
 -14.8331634607505105  2.9666325734847980  8.0977221162195825
 -17.7998010775106863  2.9666325734847971  5.9999999999999982
 -14.8331634607505105  2.9666325734847980 12.2931744159047405
 -17.7998010775106863  2.9666325734847971 10.1954519489353270
 -14.8331634607505105  2.9666325734847980 16.4886263648400657
 -17.7998010775106863  2.9666325734847971 14.3909038978706558
 -14.8331634607505105  2.9666325734847980 20.6840783137753945
 -17.7998010775106863  2.9666325734847971 18.5863558468059864
 -14.8331634607505105  2.9666325734847980 24.8795302627107233
 -17.7998010775106863  2.9666325734847971 22.7818077957413152
 -14.8331634607505105  2.9666325734847980 29.0749822116460592
 -17.7998010775106863  2.9666325734847971 26.9772600954264661
 -17.7997960342353103  5.9332651469695978  8.0977221162195825
 -20.7664336509954843  5.9332651469695969  5.9999999999999982
 -17.7997960342353103  5.9332651469695978 12.2931744159047405
 -20.7664336509954843  5.9332651469695969 10.1954519489353270
 -17.7997960342353103  5.9332651469695978 16.4886263648400657
 -20.7664336509954843  5.9332651469695969 14.3909038978706558
 -17.7997960342353103  5.9332651469695978 20.6840783137753945
 -20.7664336509954843  5.9332651469695969 18.5863558468059864
 -17.7997960342353103  5.9332651469695978 24.8795302627107233
 -20.7664336509954843  5.9332651469695969 22.7818077957413152
 -17.7997960342353103  5.9332651469695978 29.0749822116460592
 -20.7664336509954843  5.9332651469695969 26.9772600954264661
