Na                                      
   1.00000000000000     
     0.0000000000000000    4.1954520239999997    0.0000000000000000
    -4.1954520239999997    0.0000000000000000    0.0000000000000000
     0.0000000000000000    0.0000000000000000   35.0749825635452055
   Na
    12
Direct
  0.0000001000000012  0.0000001000000012  0.2308688943429829
  0.5000009505531153  0.5000009505531153  0.1710620950168646
  0.0000001000000012  0.0000001000000012  0.3504826964710190
  0.5000009505531153  0.5000009505531153  0.2906758971448937
  0.0000001000000012  0.0000001000000012  0.4700964985990481
  0.5000009505531153  0.5000009505531153  0.4102896992729228
  0.0000001000000012  0.0000001000000012  0.5897103007270772
  0.5000009505531153  0.5000009505531153  0.5299035014009519
  0.0000001000000012  0.0000001000000012  0.7093241028551063
  0.5000009505531153  0.5000009505531153  0.6495173035289810
  0.0000001000000012  0.0000001000000012  0.8289379049831354
  0.5000009505531153  0.5000009505531153  0.7691311056570100
 
  0.00000000E+00  0.00000000E+00  0.00000000E+00
  0.00000000E+00  0.00000000E+00  0.00000000E+00
  0.00000000E+00  0.00000000E+00  0.00000000E+00
  0.00000000E+00  0.00000000E+00  0.00000000E+00
  0.00000000E+00  0.00000000E+00  0.00000000E+00
  0.00000000E+00  0.00000000E+00  0.00000000E+00
  0.00000000E+00  0.00000000E+00  0.00000000E+00
  0.00000000E+00  0.00000000E+00  0.00000000E+00
  0.00000000E+00  0.00000000E+00  0.00000000E+00
  0.00000000E+00  0.00000000E+00  0.00000000E+00
  0.00000000E+00  0.00000000E+00  0.00000000E+00
  0.00000000E+00  0.00000000E+00  0.00000000E+00
