Cl Na  O                                
   1.00000000000000     
   -17.6654492978141278  -26.3805719732665835    0.0833859053163400
    -7.0614331435165987  -24.8110254789791647   -0.0566230526859013
    -0.4053494027569458    0.1726049861159320   27.5303901040786876
   Cl   Na   O 
    36   204    36
Direct
  0.8495101948923077  0.2086894660012208  0.3319940750308525
  0.5673710849652847  0.5931683591288515  0.4473301069008744
  0.4280998514223743  0.4025285886331523  0.1045561803058519
  0.1388747404219964  0.8012425279324052  0.2168193878521219
  0.0862523271321168  0.0764703040813601  0.3313928873584615
  0.7999310151057479  0.4750727179290314  0.4383723089450869
  0.6375018745393608  0.3067679835188491  0.1059012495666847
  0.3651422259317088  0.6872276567261085  0.2171490717774134
  0.2948002959611242  0.9797949690181187  0.3331143552180899
 -0.0012789029908692  0.3947093732099733  0.4483547173841139
  0.8730942832104682  0.1737766711227828  0.1016724257879954
  0.5825094503724818  0.5825080829264263  0.2139047240976151
  0.7477768043894665  0.7505680666506468  0.3350414973656730
  0.4718123429981638  0.1315913636637898  0.4429971139300031
  0.5260516725067577  0.8624356972912601  0.3303163383656890
  0.2289011374789685  0.2759887051631102  0.4399053060311481
  0.1052527181829145  0.0504969764166656  0.1073444414280002
  0.8157216631444218  0.4585844944417322  0.2154165010777842
  0.9682527494449646  0.6422579879188896  0.3355202412876810
  0.6885795527104339  0.0290906632808656  0.4516902667383700
  0.5427449268210773  0.8410171256967567  0.0992527208002862
  0.2532585966923555  0.2418991726789913  0.2139889229757095
  0.3204899087903139  0.9513922664874643  0.1014987940534317
  0.0370703892660421  0.3487246737436864  0.2142366367671608
  0.1832850861610758  0.5362210693240393  0.3334277496570763
  0.8812454531683478  0.9603727884964340  0.4416020930871892
  0.7721690581537649  0.7124772214489539  0.1082393263737320
  0.4805314990457313  0.1256305613451164  0.2180664901648089
  0.4095921229218905  0.4262283302558353  0.3351988418661997
  0.1102771176457600  0.8459515694166767  0.4477589463036777
 -0.0222664067076531  0.6353332094950753  0.1080144458842994
  0.6969537292168431  0.0206556261760998  0.2179833964679447
  0.6222807671246207  0.3225798489798457  0.3311602995155764
  0.3409267859092429  0.7190109828531316  0.4449500422263191
  0.2000375400684911  0.5168769194371161  0.1047032798109818
  0.9154310730457177  0.9168729199771490  0.2117811972533166
  0.4792771342086108  0.0079135317948807  0.0393419590785248
  0.2465670342289194  0.3668416838595234  0.1616560229563921
  0.9299715042495883  0.7810126456384771  0.2791843523915107
  0.6566072983499850  0.1885726956906293  0.3882205218245083
  0.7623608498893897  0.8591152604907837  0.0449576427332071
  0.5382563269458017  0.0456950388536183  0.1046234024882814
  0.4338149903215405  0.2727511057628790  0.1636864077494410
  0.1596259241135035  0.5738292134268372  0.2239543190578296
  0.1840205901697967  0.6545029270330629  0.2778540651242933
  0.9382804324167949  0.8830290961460936  0.3347956048106845
  0.8439188717418480  0.0983030039308114  0.3854740109890789
  0.5826378578189971  0.3757449013117085  0.4594830765903807
  0.6708572001985356  0.0575364929173284  0.1139686225235280
  0.4444555011587174  0.3748199218491251  0.2142324512584858
  0.0953379691821069  0.8621458681232124  0.3351036776136403
  0.8434930824669182  0.2136903758050324  0.4350695880134920
  0.6769789597926948  0.1291550350679347  0.0322153137413352
  0.3834237517871726  0.5553459489214316  0.1643096023526336
  0.1012654989937647  0.9595794494867294  0.2797404228379969
  0.8513229614062264  0.3169522793356710  0.3826331255097363
  0.6370353145443542  0.4144175473547174  0.0487975967208192
  0.3847294204447596  0.6609091134772552  0.1043772671276707
  0.9415110238054228 -0.0025656563553987  0.0312246051636638
  0.3377904202877459  0.8165209291530025  0.1647925915833808
  0.0682109192718992  0.1026425339116820  0.2227386850369499
  0.6227809106089718  0.4317604849069282  0.1616092624665687
  0.0492883609012015  0.2354171725474029  0.2685707759549488
  0.7801109994758015  0.5044241501039858  0.3262379995804242
  0.3295566686230568  0.8403576399380611  0.2780374192828011
  0.7803174128047777  0.6030795752312627  0.3969473708924632
  0.5522888839709802  0.8201057319143210  0.4595185064491671
  0.0434356077270181  0.2211554853625876  0.3824979470300519
  0.7878928935349223  0.3762527007848542  0.0254755987632446
  0.5718934252321821  0.5985063150167590  0.1101155113165914
  0.1187748126953211  0.9319446824518666  0.0483137839427402
  0.5942616690557658  0.6771216474939841  0.1641158536030275
  0.3104254107454362  0.9650340824816814  0.2076522282461351
  0.8560643632270118  0.2969081853152761  0.1497701912392347
  0.2751726402364238  0.1144942344626537  0.2720846431363235
  0.0467775548417127  0.3319932166431030  0.3419053090295751
  0.5251617843450979  0.7494700067422460  0.2808737346781848
 -0.0106022987214221  0.5072799222635744  0.3902631313436244
  0.7211930716302691  0.7840863083426379  0.4393996529912719
  0.2886681490825890  0.1105233258252979  0.3939075711149175
  0.5516910107023411  0.7300440026686791  0.0534892933813116
  0.3089482101609645  0.0802354236527345  0.1553730065920562
  0.9855638279036101  0.5050593665037908  0.2759047936319146
  0.7319903236687799  0.8844807261592899  0.3906719882164062
  0.0763637925612638  0.2208106397610252  0.0254078506835937
  0.8562714006577888  0.4014479003299888  0.0879321868523408
  0.3396558419284256  0.8214689686650271  0.0473400097740164
  0.8016984994855085  0.5761547270714932  0.1626180028307344
  0.5560325071606386  0.8203346160192321  0.2262222192757342
  0.0775855778451973  0.1848438690728036  0.1505185553790262
  0.4846152312475699  0.0121317429334139  0.2715151884000598
  0.2215962980747496  0.2865692071557725  0.3302179925709748
  0.7801030907242745  0.6179799501916765  0.2804269370727596
  0.2241396831383735  0.3886037755153845  0.3937277952088347
 -0.0080412887978411  0.6094163185587270  0.4520854355307534
  0.4852098878041097  0.0040112125269042  0.3876679833895292
  0.7818125718387426  0.6046551938351321  0.0517410438171958
  0.5010005925816542 -0.0173931562910358  0.1567872818854762
  0.2320474974369076  0.3853811442412481  0.2780113115182226
  0.9117599056314376  0.8061871696820315  0.3945449847546578
  0.2890243392680935  0.1151885429546998  0.0338607175184253
  0.0671310293809674  0.3078352158501484  0.1100033956221421
  0.0003643628571155  0.4897394556216833  0.1607669988477033
  0.7321909172313567  0.7719357785542389  0.2132859510028548
  0.7290238289986352  0.8847815010974549  0.2761886695971864
  0.4972291072486157  0.1005433611958454  0.3363094423738030
  0.4231409567330073  0.2870905586523908  0.3990000671506284
  0.1238118156629028  0.6230370508770078  0.4391210566121147
 -0.0171042831148346  0.4954858388120201  0.0409224936359146
  0.7443946369317883  0.8685918072710608  0.1627313201233808
  0.4264706930662561  0.2892627088606002  0.2790896115275432
  0.1589253027674405  0.6900717869388865  0.3954351082215765
  0.2150850509473665  0.2986979703207832  0.1036076822288653
  0.0049692749799081  0.5925240580044796  0.2182125026653236
  0.6512414532105246  0.0833633681034918  0.3355681181804152
  0.4377003317618489  0.3780953276282666  0.4455193139255718
  0.9565682123279458  0.7501736376841108  0.0472491559045620
  0.2708707156385551  0.3436992633052782  0.0458946707022760
  0.6772878532670785  0.1633425499178768  0.1539048405917174
  0.9434797055306762  0.7746896403571990  0.1608900877525341
  0.3786477912157951  0.5567704538121330  0.2791521709756083
  0.6794294285964707  0.1538026495515529  0.2728722767296723
  0.1171617850281835  0.9393837420444560  0.3977152051272121
  0.3612454284187951  0.5815805807142070  0.3945061280777911
  0.2160673614241254  0.6213616864673791  0.0411223342226324
  0.9366025926997885  0.8883852869030755  0.0901297973879246
  0.4422822860078928  0.2596360200075109  0.0478769259373936
  0.8750783939766211  0.0617836397605301  0.1533811227756972
  0.6166444444882716  0.3332940846977326  0.2196472501356160
  0.1739062065673630  0.6556560943022619  0.1584213917643963
  0.6209018689060710  0.4333623304729453  0.2775941133108560
  0.3608006915664981  0.6908382122305845  0.3300596233866555
  0.8878988250016098  0.0451713809019930  0.2694858133919807
  0.3230201649084419  0.8416636225706491  0.3932363405375193
  0.0858593678275209  0.0764041609110127  0.4592619415158826
  0.5795954376582273  0.4779823838026004  0.3964437594382741
  0.4086890568547935  0.5261723016148702  0.0524777862208460
  0.1282427093675886  0.8194961011408409  0.1130242023216349
  0.1357810898547336  0.9205486708815191  0.1645449784830571
  0.8833207853037408  0.1608774717400662  0.2157638166042523
  0.8063571765091420  0.3609569850778361  0.2680715157607927
  0.5859616717673596  0.5758434408330396  0.3408003853374916
  0.5549082507988028  0.7163831473190531  0.3988026545316904
  0.2638751209535534  0.0288950334212080  0.4372623637392644
  0.8921549147695318  0.0438475240531851  0.4934688572359996
  0.9205984608030908  0.7845330030963854  0.5166162618956949
  0.9264364436004464  0.8941490790802724  0.5938590157734064
  0.8168016546167363  0.7594461766843461  0.6199350567820558
  0.8565011141075421  0.8420814913361081  0.6541755494485886
  0.7696497056398337  0.6795558001106757  0.6645951488056382
  0.7998654446736786  0.7643322359105339  0.7482230090384158
  0.7419958395866774  0.5699692868946513  0.8254267511487872
  0.7909233243452085  0.6443558400648245  0.7997273982983898
  0.7192348884285823  0.4633485051700141  0.8787706882617095
  0.7597447690873869  0.5379859585083012  0.9486321410587500
  0.7069451828134051  0.3459992983482252  0.9260558062343298
  0.0050733027688246  0.2846373076232980  0.4938957190513024
  0.0319127167953399  0.0309797020144829  0.5157223634188415
  0.0038758588665547  0.1895944188459220  0.5921670350830084
  0.9739484579213342 -0.0203744140582631  0.6112383317145663
 -0.0262315077349545  0.1067297626819167  0.6548357843230975
  0.9218785944829335  0.8868315447531557  0.7158315717609531
  0.9495563565747128 -0.0063516028668303  0.7414960084710088
  0.8684954266265354  0.8141689246315807  0.7880160934185394
  0.9384480092827402  0.8670419656193883  0.8350964316047017
  0.8548959461690711  0.7042192790838031  0.8776476389216880
  0.9307215963145116  0.7539451778635518  0.9151457900196968
  0.8190280088775306  0.6077653519298067  0.9304423660333120
  0.4391606186972422  0.0602127789629800  0.4981510383157022
  0.3229171610768048  0.8685651029351299  0.5085937643913636
  0.3518454108862860  0.9919400146174069  0.5284110406166415
  0.3100154396023183  0.7631741581758802  0.7173465424195602
  0.3231258388485845  0.8706979881505749  0.6417874827565924
  0.2781727268246284  0.6738121176052273  0.6710240753340835
  0.3322960779094420  0.7287421156459748  0.8373378378235513
  0.2397157262116697  0.5738891287482144  0.7747510148687213
  0.2989489268328344  0.6365611787879925  0.8036792818190027
  0.2737191890700827  0.3951782266265496  0.9214045317882955
  0.2919750395929623  0.5093860848126868  0.9005101938911989
  0.1491461334817431  0.4007936125557748  0.9595373975293423
  0.2451856926720311  0.4047422314976866  0.5051178087255165
 -0.0052276630397143  0.4962735638727280  0.5025425022715572
  0.1488506346941202  0.4200642498019218  0.5880507029046989
  0.0409439294421646  0.2829361408404550  0.6150442217769446
  0.1059673090147538  0.3394857599044280  0.6398301098330259
  0.0149743567842329  0.1839605262202594  0.7140409118839768
  0.0697185753676376  0.2498268789337698  0.7452442870218553
 -0.0021979060685555  0.0675389509248060  0.7841148797728152
  0.0397045270521984  0.1459376965333599  0.8325984409004021
  0.9881315077386177  0.9431223751617749  0.8754014458261299
  0.0325710130910195  0.0258068842662893  0.9156754264139015
  0.9895915085835981  0.8164715601142071  0.9552790197911281
  0.6637233021318857  0.1739637419967897  0.5041192023585460
  0.5017583179671732  0.0735952118033873  0.5991102244197343
  0.5403713434919453  0.1815218939705336  0.5772748119547930
  0.4421742749452860  0.0050089336575070  0.6314333209640960
  0.4701665911515504  0.0932564380856885  0.7226814081272135
  0.3896103752709378  0.9297298086906102  0.6794774553318720
  0.4514822613480229  0.9863064766234610  0.7681068603477257
  0.3560483423874266  0.8354454540813406  0.7733314985393911
  0.4026619899963406  0.9114205326539491  0.8132119092277116
  0.3796635411793564  0.6671385038637410  0.9571887474479118
  0.3884059296942301  0.7838394345662750  0.9045515791466637
  0.3107887168792600  0.6162439586146882  0.9348293643832924
  0.3125660694475964  0.7524061549381292  0.5883108150568835
  0.2260154613567669  0.5767767551047461  0.5228134929484178
  0.3430956636047993  0.5836590934619119  0.5138858381723854
  0.2060468223944991  0.4857728930033107  0.6426520139337421
  0.2409562630155501  0.5831617418528672  0.6499754641453281
  0.1309377225965094  0.4372841545865453  0.7112078338808874
  0.2107784444877458  0.4713866642689984  0.7822942144286062
  0.1115990220469588  0.3321599968981939  0.7746862285724174
  0.1804326516528811  0.3769161601518973  0.8343812448893873
  0.0872436438532677  0.2159874749202884  0.8781681242530360
  0.1458238874235892  0.2807782155709936  0.9053176388195620
  0.0731235019425482  0.1048938426067804  0.9567475839190015
  0.7736457240355061  0.4099631421731834  0.4918382449630815
  0.6304229297235949  0.3214949121081409  0.6007508267042381
  0.6315550103006072  0.4284237819985248  0.5149881306307355
  0.5806857041474636  0.2510844023247555  0.6344843876595809
  0.6046547092131592  0.3378714424994161  0.7245145447367040
  0.5243312978727513  0.1690096045246153  0.6987126849652063
  0.5851508548380713  0.2247586438672125  0.7625400302910320
  0.5147166455202237  0.0376472588515418  0.8443210628983878
  0.5362482322498899  0.1486911653069287  0.8221377618753956
  0.4778255696435268  0.9542643646436916  0.9092278633550287
  0.5922909934084405 -0.0288026794466022  0.9621169857915882
  0.4137888346037354  0.8820581601253411  0.9386229182499637
  0.6928545972205085  0.9194073957998126  0.4999845504948410
  0.6951668387342257  0.6196979999416929  0.5844945070375100
  0.7457080486522667  0.6774688290229103  0.5213087750992859
  0.6530864135281103  0.5382129737461983  0.6141570279382952
  0.7255724211219158  0.6007720796060261  0.7043151448143739
  0.6430011375857195  0.4250313875805795  0.6685856883759710
  0.6902308257228693  0.5038975722761153  0.7453558439014952
  0.6420019025168548  0.2963884815253504  0.8426200616776409
  0.6590634276816696  0.4077414087240897  0.7993054905834609
  0.6230843360009092  0.1912793947641339  0.8917235700869303
  0.6787397937759472  0.2452458859434683  0.9634432673748614
  0.6053090866740011  0.0901878300364103  0.9403514111495630
  0.3759906781593458  0.1733795444040924  0.1010797917379186
  0.0864369529480071  0.5782607635787039  0.2194024051438591
  0.7958163510195027  0.9813418232787934  0.3339834431358135
  0.5034037392523931  0.3852494907553926  0.4527174439162032
  0.5962676953871278  0.0626045489120128  0.1039909620205009
  0.3057074200026087  0.4686473666543512  0.2189516753469111
  0.0175297233626757  0.8720866245191022  0.3327450020038686
  0.7299907929457423  0.2713754961546919  0.4500885522346378
  0.4832140383836432  0.6238008766209667  0.1027020599935430
  0.1968323745859314  0.0233853477499170  0.2164128815583055
  0.9126578030074596  0.4201351748998643  0.3320204008890491
  0.6218401487744053  0.8220553094956813  0.4524402095702647
  0.7086414089307232  0.5063483658768960  0.0967095666382071
  0.4260471744859780  0.9033535969363203  0.2161359441421597
  0.1364106400912437  0.3058095655734913  0.3326948270185234
  0.8534740540307902  0.7007466271303496  0.4494665600713837
  0.9428763040019325  0.3816598180312171  0.0961960817950962
  0.6445511391909603  0.7948779248153480  0.2174041301849693
  0.3576093503599897  0.1963353214268112  0.3322053680320375
  0.0707079375997450  0.6007945911744736  0.4527836701536790
  0.1479200397673865  0.2940783507740672  0.0981736806406677
  0.8662996418363978  0.6853842807249432  0.2187610172297717
  0.5762536706082708  0.0895098976767660  0.3354397817842790
  0.2795779576242894  0.5018554637806866  0.4464656230351099
  0.8099386024695528  0.9627427208205318  0.0980694788988617
  0.5300209449137548  0.3546884675915722  0.2179608459956900
  0.2373204574440006  0.7626021677754148  0.3342236261555540
  0.9483897713481287  0.1675120408255942  0.4496399428281027
  0.0436615769297483  0.8407219580836981  0.0956013816308784
  0.7532968315106879  0.2423499686298946  0.2168600812660101
  0.4667643172987526  0.6433529029648785  0.3333350721733473
  0.1760751430963789  0.0514834439576292  0.4484000767940325
  0.2576079548154691  0.7377100223400797  0.1046237903785813
  0.9717287887774912  0.1371357915136328  0.2171871971616449
  0.6850492540355779  0.5365279627007241  0.3322893939734334
  0.4020104930747090  0.9333011817368245  0.4495246534045504
 
  0.00000000E+00  0.00000000E+00  0.00000000E+00
  0.00000000E+00  0.00000000E+00  0.00000000E+00
  0.00000000E+00  0.00000000E+00  0.00000000E+00
  0.00000000E+00  0.00000000E+00  0.00000000E+00
  0.00000000E+00  0.00000000E+00  0.00000000E+00
  0.00000000E+00  0.00000000E+00  0.00000000E+00
  0.00000000E+00  0.00000000E+00  0.00000000E+00
  0.00000000E+00  0.00000000E+00  0.00000000E+00
  0.00000000E+00  0.00000000E+00  0.00000000E+00
  0.00000000E+00  0.00000000E+00  0.00000000E+00
  0.00000000E+00  0.00000000E+00  0.00000000E+00
  0.00000000E+00  0.00000000E+00  0.00000000E+00
  0.00000000E+00  0.00000000E+00  0.00000000E+00
  0.00000000E+00  0.00000000E+00  0.00000000E+00
  0.00000000E+00  0.00000000E+00  0.00000000E+00
  0.00000000E+00  0.00000000E+00  0.00000000E+00
  0.00000000E+00  0.00000000E+00  0.00000000E+00
  0.00000000E+00  0.00000000E+00  0.00000000E+00
  0.00000000E+00  0.00000000E+00  0.00000000E+00
  0.00000000E+00  0.00000000E+00  0.00000000E+00
  0.00000000E+00  0.00000000E+00  0.00000000E+00
  0.00000000E+00  0.00000000E+00  0.00000000E+00
  0.00000000E+00  0.00000000E+00  0.00000000E+00
  0.00000000E+00  0.00000000E+00  0.00000000E+00
  0.00000000E+00  0.00000000E+00  0.00000000E+00
  0.00000000E+00  0.00000000E+00  0.00000000E+00
  0.00000000E+00  0.00000000E+00  0.00000000E+00
  0.00000000E+00  0.00000000E+00  0.00000000E+00
  0.00000000E+00  0.00000000E+00  0.00000000E+00
  0.00000000E+00  0.00000000E+00  0.00000000E+00
  0.00000000E+00  0.00000000E+00  0.00000000E+00
  0.00000000E+00  0.00000000E+00  0.00000000E+00
  0.00000000E+00  0.00000000E+00  0.00000000E+00
  0.00000000E+00  0.00000000E+00  0.00000000E+00
  0.00000000E+00  0.00000000E+00  0.00000000E+00
  0.00000000E+00  0.00000000E+00  0.00000000E+00
  0.00000000E+00  0.00000000E+00  0.00000000E+00
  0.00000000E+00  0.00000000E+00  0.00000000E+00
  0.00000000E+00  0.00000000E+00  0.00000000E+00
  0.00000000E+00  0.00000000E+00  0.00000000E+00
  0.00000000E+00  0.00000000E+00  0.00000000E+00
  0.00000000E+00  0.00000000E+00  0.00000000E+00
  0.00000000E+00  0.00000000E+00  0.00000000E+00
  0.00000000E+00  0.00000000E+00  0.00000000E+00
  0.00000000E+00  0.00000000E+00  0.00000000E+00
  0.00000000E+00  0.00000000E+00  0.00000000E+00
  0.00000000E+00  0.00000000E+00  0.00000000E+00
  0.00000000E+00  0.00000000E+00  0.00000000E+00
  0.00000000E+00  0.00000000E+00  0.00000000E+00
  0.00000000E+00  0.00000000E+00  0.00000000E+00
  0.00000000E+00  0.00000000E+00  0.00000000E+00
  0.00000000E+00  0.00000000E+00  0.00000000E+00
  0.00000000E+00  0.00000000E+00  0.00000000E+00
  0.00000000E+00  0.00000000E+00  0.00000000E+00
  0.00000000E+00  0.00000000E+00  0.00000000E+00
  0.00000000E+00  0.00000000E+00  0.00000000E+00
  0.00000000E+00  0.00000000E+00  0.00000000E+00
  0.00000000E+00  0.00000000E+00  0.00000000E+00
  0.00000000E+00  0.00000000E+00  0.00000000E+00
  0.00000000E+00  0.00000000E+00  0.00000000E+00
  0.00000000E+00  0.00000000E+00  0.00000000E+00
  0.00000000E+00  0.00000000E+00  0.00000000E+00
  0.00000000E+00  0.00000000E+00  0.00000000E+00
  0.00000000E+00  0.00000000E+00  0.00000000E+00
  0.00000000E+00  0.00000000E+00  0.00000000E+00
  0.00000000E+00  0.00000000E+00  0.00000000E+00
  0.00000000E+00  0.00000000E+00  0.00000000E+00
  0.00000000E+00  0.00000000E+00  0.00000000E+00
  0.00000000E+00  0.00000000E+00  0.00000000E+00
  0.00000000E+00  0.00000000E+00  0.00000000E+00
  0.00000000E+00  0.00000000E+00  0.00000000E+00
  0.00000000E+00  0.00000000E+00  0.00000000E+00
  0.00000000E+00  0.00000000E+00  0.00000000E+00
  0.00000000E+00  0.00000000E+00  0.00000000E+00
  0.00000000E+00  0.00000000E+00  0.00000000E+00
  0.00000000E+00  0.00000000E+00  0.00000000E+00
  0.00000000E+00  0.00000000E+00  0.00000000E+00
  0.00000000E+00  0.00000000E+00  0.00000000E+00
  0.00000000E+00  0.00000000E+00  0.00000000E+00
  0.00000000E+00  0.00000000E+00  0.00000000E+00
  0.00000000E+00  0.00000000E+00  0.00000000E+00
  0.00000000E+00  0.00000000E+00  0.00000000E+00
  0.00000000E+00  0.00000000E+00  0.00000000E+00
  0.00000000E+00  0.00000000E+00  0.00000000E+00
  0.00000000E+00  0.00000000E+00  0.00000000E+00
  0.00000000E+00  0.00000000E+00  0.00000000E+00
  0.00000000E+00  0.00000000E+00  0.00000000E+00
  0.00000000E+00  0.00000000E+00  0.00000000E+00
  0.00000000E+00  0.00000000E+00  0.00000000E+00
  0.00000000E+00  0.00000000E+00  0.00000000E+00
  0.00000000E+00  0.00000000E+00  0.00000000E+00
  0.00000000E+00  0.00000000E+00  0.00000000E+00
  0.00000000E+00  0.00000000E+00  0.00000000E+00
  0.00000000E+00  0.00000000E+00  0.00000000E+00
  0.00000000E+00  0.00000000E+00  0.00000000E+00
  0.00000000E+00  0.00000000E+00  0.00000000E+00
  0.00000000E+00  0.00000000E+00  0.00000000E+00
  0.00000000E+00  0.00000000E+00  0.00000000E+00
  0.00000000E+00  0.00000000E+00  0.00000000E+00
  0.00000000E+00  0.00000000E+00  0.00000000E+00
  0.00000000E+00  0.00000000E+00  0.00000000E+00
  0.00000000E+00  0.00000000E+00  0.00000000E+00
  0.00000000E+00  0.00000000E+00  0.00000000E+00
  0.00000000E+00  0.00000000E+00  0.00000000E+00
  0.00000000E+00  0.00000000E+00  0.00000000E+00
  0.00000000E+00  0.00000000E+00  0.00000000E+00
  0.00000000E+00  0.00000000E+00  0.00000000E+00
  0.00000000E+00  0.00000000E+00  0.00000000E+00
  0.00000000E+00  0.00000000E+00  0.00000000E+00
  0.00000000E+00  0.00000000E+00  0.00000000E+00
  0.00000000E+00  0.00000000E+00  0.00000000E+00
  0.00000000E+00  0.00000000E+00  0.00000000E+00
  0.00000000E+00  0.00000000E+00  0.00000000E+00
  0.00000000E+00  0.00000000E+00  0.00000000E+00
  0.00000000E+00  0.00000000E+00  0.00000000E+00
  0.00000000E+00  0.00000000E+00  0.00000000E+00
  0.00000000E+00  0.00000000E+00  0.00000000E+00
  0.00000000E+00  0.00000000E+00  0.00000000E+00
  0.00000000E+00  0.00000000E+00  0.00000000E+00
  0.00000000E+00  0.00000000E+00  0.00000000E+00
  0.00000000E+00  0.00000000E+00  0.00000000E+00
  0.00000000E+00  0.00000000E+00  0.00000000E+00
  0.00000000E+00  0.00000000E+00  0.00000000E+00
  0.00000000E+00  0.00000000E+00  0.00000000E+00
  0.00000000E+00  0.00000000E+00  0.00000000E+00
  0.00000000E+00  0.00000000E+00  0.00000000E+00
  0.00000000E+00  0.00000000E+00  0.00000000E+00
  0.00000000E+00  0.00000000E+00  0.00000000E+00
  0.00000000E+00  0.00000000E+00  0.00000000E+00
  0.00000000E+00  0.00000000E+00  0.00000000E+00
  0.00000000E+00  0.00000000E+00  0.00000000E+00
  0.00000000E+00  0.00000000E+00  0.00000000E+00
  0.00000000E+00  0.00000000E+00  0.00000000E+00
  0.00000000E+00  0.00000000E+00  0.00000000E+00
  0.00000000E+00  0.00000000E+00  0.00000000E+00
  0.00000000E+00  0.00000000E+00  0.00000000E+00
  0.00000000E+00  0.00000000E+00  0.00000000E+00
  0.00000000E+00  0.00000000E+00  0.00000000E+00
  0.00000000E+00  0.00000000E+00  0.00000000E+00
  0.00000000E+00  0.00000000E+00  0.00000000E+00
  0.00000000E+00  0.00000000E+00  0.00000000E+00
  0.00000000E+00  0.00000000E+00  0.00000000E+00
  0.00000000E+00  0.00000000E+00  0.00000000E+00
  0.00000000E+00  0.00000000E+00  0.00000000E+00
  0.00000000E+00  0.00000000E+00  0.00000000E+00
  0.00000000E+00  0.00000000E+00  0.00000000E+00
  0.00000000E+00  0.00000000E+00  0.00000000E+00
  0.00000000E+00  0.00000000E+00  0.00000000E+00
  0.00000000E+00  0.00000000E+00  0.00000000E+00
  0.00000000E+00  0.00000000E+00  0.00000000E+00
  0.00000000E+00  0.00000000E+00  0.00000000E+00
  0.00000000E+00  0.00000000E+00  0.00000000E+00
  0.00000000E+00  0.00000000E+00  0.00000000E+00
  0.00000000E+00  0.00000000E+00  0.00000000E+00
  0.00000000E+00  0.00000000E+00  0.00000000E+00
  0.00000000E+00  0.00000000E+00  0.00000000E+00
  0.00000000E+00  0.00000000E+00  0.00000000E+00
  0.00000000E+00  0.00000000E+00  0.00000000E+00
  0.00000000E+00  0.00000000E+00  0.00000000E+00
  0.00000000E+00  0.00000000E+00  0.00000000E+00
  0.00000000E+00  0.00000000E+00  0.00000000E+00
  0.00000000E+00  0.00000000E+00  0.00000000E+00
  0.00000000E+00  0.00000000E+00  0.00000000E+00
  0.00000000E+00  0.00000000E+00  0.00000000E+00
  0.00000000E+00  0.00000000E+00  0.00000000E+00
  0.00000000E+00  0.00000000E+00  0.00000000E+00
  0.00000000E+00  0.00000000E+00  0.00000000E+00
  0.00000000E+00  0.00000000E+00  0.00000000E+00
  0.00000000E+00  0.00000000E+00  0.00000000E+00
  0.00000000E+00  0.00000000E+00  0.00000000E+00
  0.00000000E+00  0.00000000E+00  0.00000000E+00
  0.00000000E+00  0.00000000E+00  0.00000000E+00
  0.00000000E+00  0.00000000E+00  0.00000000E+00
  0.00000000E+00  0.00000000E+00  0.00000000E+00
  0.00000000E+00  0.00000000E+00  0.00000000E+00
  0.00000000E+00  0.00000000E+00  0.00000000E+00
  0.00000000E+00  0.00000000E+00  0.00000000E+00
  0.00000000E+00  0.00000000E+00  0.00000000E+00
  0.00000000E+00  0.00000000E+00  0.00000000E+00
  0.00000000E+00  0.00000000E+00  0.00000000E+00
  0.00000000E+00  0.00000000E+00  0.00000000E+00
  0.00000000E+00  0.00000000E+00  0.00000000E+00
  0.00000000E+00  0.00000000E+00  0.00000000E+00
  0.00000000E+00  0.00000000E+00  0.00000000E+00
  0.00000000E+00  0.00000000E+00  0.00000000E+00
  0.00000000E+00  0.00000000E+00  0.00000000E+00
  0.00000000E+00  0.00000000E+00  0.00000000E+00
  0.00000000E+00  0.00000000E+00  0.00000000E+00
  0.00000000E+00  0.00000000E+00  0.00000000E+00
  0.00000000E+00  0.00000000E+00  0.00000000E+00
  0.00000000E+00  0.00000000E+00  0.00000000E+00
  0.00000000E+00  0.00000000E+00  0.00000000E+00
  0.00000000E+00  0.00000000E+00  0.00000000E+00
  0.00000000E+00  0.00000000E+00  0.00000000E+00
  0.00000000E+00  0.00000000E+00  0.00000000E+00
  0.00000000E+00  0.00000000E+00  0.00000000E+00
  0.00000000E+00  0.00000000E+00  0.00000000E+00
  0.00000000E+00  0.00000000E+00  0.00000000E+00
  0.00000000E+00  0.00000000E+00  0.00000000E+00
  0.00000000E+00  0.00000000E+00  0.00000000E+00
  0.00000000E+00  0.00000000E+00  0.00000000E+00
  0.00000000E+00  0.00000000E+00  0.00000000E+00
  0.00000000E+00  0.00000000E+00  0.00000000E+00
  0.00000000E+00  0.00000000E+00  0.00000000E+00
  0.00000000E+00  0.00000000E+00  0.00000000E+00
  0.00000000E+00  0.00000000E+00  0.00000000E+00
  0.00000000E+00  0.00000000E+00  0.00000000E+00
  0.00000000E+00  0.00000000E+00  0.00000000E+00
  0.00000000E+00  0.00000000E+00  0.00000000E+00
  0.00000000E+00  0.00000000E+00  0.00000000E+00
  0.00000000E+00  0.00000000E+00  0.00000000E+00
  0.00000000E+00  0.00000000E+00  0.00000000E+00
  0.00000000E+00  0.00000000E+00  0.00000000E+00
  0.00000000E+00  0.00000000E+00  0.00000000E+00
  0.00000000E+00  0.00000000E+00  0.00000000E+00
  0.00000000E+00  0.00000000E+00  0.00000000E+00
  0.00000000E+00  0.00000000E+00  0.00000000E+00
  0.00000000E+00  0.00000000E+00  0.00000000E+00
  0.00000000E+00  0.00000000E+00  0.00000000E+00
  0.00000000E+00  0.00000000E+00  0.00000000E+00
  0.00000000E+00  0.00000000E+00  0.00000000E+00
  0.00000000E+00  0.00000000E+00  0.00000000E+00
  0.00000000E+00  0.00000000E+00  0.00000000E+00
  0.00000000E+00  0.00000000E+00  0.00000000E+00
  0.00000000E+00  0.00000000E+00  0.00000000E+00
  0.00000000E+00  0.00000000E+00  0.00000000E+00
  0.00000000E+00  0.00000000E+00  0.00000000E+00
  0.00000000E+00  0.00000000E+00  0.00000000E+00
  0.00000000E+00  0.00000000E+00  0.00000000E+00
  0.00000000E+00  0.00000000E+00  0.00000000E+00
  0.00000000E+00  0.00000000E+00  0.00000000E+00
  0.00000000E+00  0.00000000E+00  0.00000000E+00
  0.00000000E+00  0.00000000E+00  0.00000000E+00
  0.00000000E+00  0.00000000E+00  0.00000000E+00
  0.00000000E+00  0.00000000E+00  0.00000000E+00
  0.00000000E+00  0.00000000E+00  0.00000000E+00
  0.00000000E+00  0.00000000E+00  0.00000000E+00
  0.00000000E+00  0.00000000E+00  0.00000000E+00
  0.00000000E+00  0.00000000E+00  0.00000000E+00
  0.00000000E+00  0.00000000E+00  0.00000000E+00
  0.00000000E+00  0.00000000E+00  0.00000000E+00
  0.00000000E+00  0.00000000E+00  0.00000000E+00
  0.00000000E+00  0.00000000E+00  0.00000000E+00
  0.00000000E+00  0.00000000E+00  0.00000000E+00
  0.00000000E+00  0.00000000E+00  0.00000000E+00
  0.00000000E+00  0.00000000E+00  0.00000000E+00
  0.00000000E+00  0.00000000E+00  0.00000000E+00
  0.00000000E+00  0.00000000E+00  0.00000000E+00
  0.00000000E+00  0.00000000E+00  0.00000000E+00
  0.00000000E+00  0.00000000E+00  0.00000000E+00
  0.00000000E+00  0.00000000E+00  0.00000000E+00
  0.00000000E+00  0.00000000E+00  0.00000000E+00
  0.00000000E+00  0.00000000E+00  0.00000000E+00
  0.00000000E+00  0.00000000E+00  0.00000000E+00
  0.00000000E+00  0.00000000E+00  0.00000000E+00
  0.00000000E+00  0.00000000E+00  0.00000000E+00
  0.00000000E+00  0.00000000E+00  0.00000000E+00
  0.00000000E+00  0.00000000E+00  0.00000000E+00
  0.00000000E+00  0.00000000E+00  0.00000000E+00
  0.00000000E+00  0.00000000E+00  0.00000000E+00
  0.00000000E+00  0.00000000E+00  0.00000000E+00
  0.00000000E+00  0.00000000E+00  0.00000000E+00