INCAR created by Atomic Simulation Environment
 ENCUT = 400.000000
 KSPACING = 0.500000
 SIGMA = 0.010000
 EDIFF = 1.00e-08
 EDIFFG = -1.00e-02
 ALGO = Fast
 GGA = PE
 PREC = Normal
 IBRION = 2
 ISIF = 3
 ISMEAR = 0
 ISPIN = 0
 ISYM = 0
 LMAXMIX = 6
 NELM = 150
 NPAR = 8
 NSW = 800
 NWRITE = 1
 KGAMMA = .TRUE.
 LASPH = .TRUE.
 LCHARG = .FALSE.
 LWAVE = .FALSE.
 LREAL = AUTO
