Cl Na  O 
 1.0000000000000000
   -17.4849042799999985  -26.3385864100000013    0.0000000000000000
    -7.0078362399999996  -24.7611821300000017    0.0000000000000000
     0.0000000000000000    0.0000000000000000   30.3503805000000000
 Cl  Na  O  
  36 204  36
Cartesian
 -16.3593417954086213 -27.3469201831111945  9.3558070789147791
 -14.1637832663917163 -29.7373348264515975 12.7185372766618645
 -10.3324541582344960 -20.9613381294978787  1.4064266167444350
 -7.9249640004701503 -23.5630198308928414  6.0449529655335148
 -1.8906807175671529 -4.1944377584703663  9.3577355420917492
 -17.3560898644863464 -32.7652824279874011 12.7028922625217238
 -13.0048163618357382 -24.4810271254561549  1.3636811408482350
 -11.1707367284947434 -26.4767268993162759  6.0468088913010893
 -12.0953656382750179 -32.0035070879730483  9.2965716342853195
 -3.0384113803967736 -9.4767593091650699 12.7012575910279963
 -16.5442515767521101 -27.1312040553188787  1.4857804180959300
 -14.1746293553228409 -29.7317547353427116  6.0310737365308658
 -18.3176227245565961 -38.2123169055088212  9.3350732164762036
 -9.2891457830012243 -15.6229233899603219 12.7502713310088591
 -15.2749113551546447 -35.0566133889264151  9.3532239580304246
 -6.0265345398465575 -12.7087414487542780 12.7332769389516898
 -1.7587000662259338 -4.3386364707756329  1.3479909046411500
 -17.3531141450265132 -32.7671742020694623  5.8886858369265305
 -21.4906154808235712 -41.2603105608377732  9.3720326958338855
 -12.2065901502060612 -18.9271085637428484 12.7537346129277136
 -15.3719978570183269 -34.9586500234795210  1.2500001486398249
 -6.0391067734820121 -12.7456095619816558  6.0331542551141402
 -12.1091486367936358 -32.0186106230612353  2.3741184521102401
 -3.0260774862160984 -9.4976978917641031  6.0247198843731899
 -7.0037756077233455 -18.1205224241029015  9.3816006532865099
 -22.4774361552790367 -46.6112778149893714 12.7592875185439940
 -18.1202297866368909 -38.4339130766653767  1.5025271510482201
 -9.2843363162528156 -15.6505152727571257  6.0331703408158051
 -10.1930753151139513 -21.1061928836069939  9.3839300449898850
 -7.9078064026380108 -23.5943036261285037 12.7653861240016635
 -21.6579742009251888 -41.1103891175181886  1.3546713268930051
 -12.2287355551898855 -18.9268894201331292  6.0517614663910804
 -13.1926113214003298 -24.3127571832410823  9.3819660718677316
 -11.2087177817927692 -26.4589643531997787 12.7491723437309545
 -6.8360753627704458 -18.3004946881722823  1.3828483166454000
 -22.4523442323047107 -46.6282566154158289  6.0608116463523753
 -8.5072582122376410 -12.9151768682796675  1.5042395195160301
 -6.8044160575208208 -15.4018079100057470  5.0075802985853697
 -21.8932242964945338 -43.8595911291952660  8.3586371329845459
 -12.9601925710398991 -21.5051810848720173 11.7736297754412149
 -18.9915623162893148 -41.1113337228551714  1.5381642643275151
 -9.5146846594161456 -15.4253570302979011  3.2379613010306101
 -9.6134986342571516 -18.2255466401596529  5.0009481334385093
 -6.8674378553572870 -18.2762709364853535  6.6892317532989294
 -7.6871891071019549 -20.8089634023334575  8.3734235348603399
 -22.5586932649810628 -46.5447908676071620 10.0549435724263336
 -15.8947622259227881 -24.4458973265725170 11.7966229202042090
 -13.0900900728552987 -24.4062022574657966 13.6558559687422960
 -11.9623320907463899 -19.2203691901215485  3.2607362265578099
 -10.3334333795779596 -20.9539666958837181  6.6929433013302750
 -7.8071429529776823 -23.6985238071151265 10.0664706469402354
 -16.4417244213619860 -27.2875838997011719 13.6443295012360064
 -12.9547985205883531 -21.7319268825778416  1.5224281990458750
 -10.4027338836098906 -23.8344680485740170  5.0114584702056604
 -8.4975375898964227 -26.3467589428198465  8.3539331275108495
 -16.6716029567194468 -30.1273065821014221 11.6899519553798843
 -13.8146557466655260 -27.2188050629512226  1.3833026618414850
 -11.4170061936333269 -26.2079185075187731  3.2405480639606248
 -15.6572311026396775 -24.4873651263009258  1.5867761652705601
 -11.6110901495863281 -29.0616305865125248  5.0286140227832847
 -1.7971365615484096 -4.2936650736353643  6.6605120987431947
 -13.7625834343379925 -27.1314563408636005  4.9662415628253456
 -2.5510898525661969 -6.8131391645728430  8.2592038233980549
 -17.3516381146313705 -32.7642094157370636  9.9716002135581139
 -11.4438718813920168 -29.3179310576214576  8.3563144183648799
 -18.0004512531868990 -35.3796126788840226 11.7206094817305448
 -15.3331133244915510 -34.9846832001366792 13.7000564418796653
 -2.3835608593516278 -6.9129978002521710 11.6649074283988945
 -16.6380118935117984 -29.9010862285068697  1.4510313569500650
 -13.9714434255597748 -29.8713389174116806  3.2685851384589149
 -8.6705172716520771 -26.3587019956398478  1.5409130982893999
 -14.7983874692921571 -32.3494829775319417  4.8753321576022799
 -12.1129749832623634 -31.9872678711057858  6.5669424826693055
 -16.6741855468543214 -30.1081758102978085  4.9255502006813847
 -5.7180389109722185 -9.9127079574167087  8.3149817526809553
 -3.0872418675507851 -9.4499006130045551 10.0017153786092408
 -14.6388182522825705 -32.4422680138314306  8.2864420758815847
 -3.5171891266279696 -12.0713069566852074 11.7229243052512793
 -18.2504531165751089 -38.2646359022278446 13.6248654987175506
 -5.5501493969212747 -10.1164415058188020 11.7504527073723910
 -14.6455786721888526 -32.2808014090741011  1.3906538275023901
 -5.6014847380849648 -10.1559043723641373  4.9860509526738896
 -20.8396013648168221 -38.6078888406253213  8.3275941568015366
 -18.7991794676062725 -41.1076897050977266 11.7805627128588313
 -2.5771492335887665 -7.0279887975634470  1.3313743748212050
 -17.4061959171654230 -32.7106003859675525  3.0448227091693951
 -11.4486463692983573 -29.1992676451787183  1.6244573766765300
 -17.9907008737082776 -35.3999474183907381  4.9345812599029646
 -15.3739310497392676 -34.9535697530888854  6.6570661165412250
 -2.4433962140554657 -6.8782722849944546  4.8546559608866549
 -15.7080960300816237 -37.6634720324309384  8.3170346524179752
 -5.9698293515970615 -12.7886581289477643 10.0167488325823051
 -17.8340490004315235 -35.6175533113108287  8.3282891805149859
 -6.7804367471801195 -15.2944519311254137 11.7611278467056550
 -21.5959625382188243 -41.1218975499593924 13.6667004631987510
 -8.5273834163896769 -13.0393760891453745 11.7446181502250706
 -17.9707046821862839 -35.6462197290672762  1.4958084873169351
 -8.5079589409702265 -13.0216383536255513  4.9722178562495998
 -6.6043270479624354 -15.5241399459799361  8.3663828535919507
 -21.7206778401331420 -44.0173792657704936 11.7596400710535445
 -5.6995054122885271 -10.0570096641063991  1.5741036673965900
 -3.1996622960657404 -9.3914130209982680  3.2653525194318602
 -3.4573959096318769 -12.0991135537688042  4.9755834099432450
 -18.2276387949450402 -38.3118438907229191  6.6284772721254450
 -18.9624528163806296 -40.9010372879928212  8.3499514610930543
 -9.3865924283909496 -15.5320435790328659 10.0521704581600506
 -9.6875660428442956 -18.2314203774627615 11.7611041734088637
 -6.9091361501952528 -18.2010812755512212 13.6502320432356452
 -20.8302457650769206 -38.3860481840060359  1.4034222325787400
 -18.8496033344744944 -41.1381677522806015  5.0074686091851301
 -9.5076923428946234 -18.4206125639826936  8.3693080232645407
 -7.5146578024887987 -20.9860102833216366 11.7708851905325993
 -5.7779248347283190 -13.0362946673088089  3.2311005975185849
 -21.6156826418540255 -41.1393936620122247  6.6781754131865849
 -12.1251881874651417 -19.0159961149237908 10.0436231840036410
 -10.2890103696372446 -20.9803629324595455 13.6764729822159445
 -21.7018049408977518 -43.8619862199166235  1.5090057432697499
 -6.7595695451082234 -15.5603744205758776  1.5246252630902699
 -12.9839080961947388 -21.5939798047035865  5.0078513274832348
 -21.6984341750476588 -43.9789680417543210  5.0012376760684800
 -10.5855052279640596 -23.7101223037702162  8.3683125307841415
 -12.7884474424812353 -21.7168718915521453  8.3707605924752695
 -8.7025314997142296 -26.1766797702237035 11.7931590312777459
 -10.4120879453901320 -23.8806249538552287 11.7624143993350501
 -7.6553464680504044 -20.9808891951363883  1.5014430354567598
 -22.7137387612866277 -46.3535105458536165  3.2614892194980150
 -9.5153153526613821 -18.2778346215966678  1.5111208612867950
 -15.8261365189084842 -24.4085667907262902  5.0289721572731851
 -13.0650811148749888 -24.4368205250863184  6.6899492362939501
 -7.5899457197120173 -21.0027727402750344  4.9966675157727902
 -13.8391473409185082 -26.9843872323533915  8.3243973512234710
 -11.2474090325124916 -26.4123363254819736 10.0373676670787848
 -15.7134852916201790 -24.6703167278015734  8.3733953090064759
 -11.6460016850207637 -29.0552039512758071 11.8175701458176992
 -1.8031041495868614 -4.3196863146894202 13.6985437789155444
 -13.7139485586845691 -27.1472147120298573 11.7123972757748565
 -10.4126488009409552 -23.7064420775243256  1.5189998200645951
 -7.6764003363229829 -23.8151206274171052  3.2542712920075050
 -8.7041913870413161 -26.2107326781004986  4.9967336796022801
 -16.4809608273548633 -27.2196266018759161  6.6485737765735200
 -16.7983580015208425 -29.9299839766902309  8.3163620879860947
 -14.0538357482708065 -29.8228399141428682 10.0230316648496114
 -14.8542064060043426 -32.3056327877008371 11.7137821636370703
 -12.0999615134276954 -32.0022703046973334 13.5973947623193894
 -23.6744315383537121 -49.6664940035346518 16.0543466869054505
 -21.0387429223069518 -43.3491890175722077 17.2285346200943259
 -22.3578159073460405 -46.5099560552838156 18.0959557788756449
 -19.7358215599314626 -40.1925005951924135 19.5624218218289840
 -21.0469799962607702 -43.3528668713091960 20.7945944604669144
 -18.4222328228074197 -37.0308680607502652 21.9100805087155202
 -19.7351846955789050 -40.1892200331274907 23.2347990450930730
 -17.1097955403831854 -33.8656035839805156 24.3450648278956798
 -18.4138889610647922 -37.0194852935361212 25.5890980917292055
 -15.7925284414663558 -30.7027698299619232 27.0471346200024740
 -17.1102785308867347 -33.8671776091368173 27.9147752120348080
 -14.4864902792785717 -27.5399075137080196 29.1003785303373448
 -3.1192629051998049 -8.0493456883113232 16.0543503289511094
 -17.9684790222343587 -28.0706262323198921 17.2285340130867155
 -1.8026472394998154 -4.8928079718982627 18.0959572963946691
 -23.6733934807761486 -49.6751198768439366 19.5624215183251771
 -0.4918110494885471 -1.7357192200511125 20.7945941569631110
 -22.3598050565766933 -46.5134859671491512 21.9100805087155202
 -23.6727571756630368 -49.6718398730988184 23.2347996521006834
 -21.0473681224630909 -43.3482205945763752 24.3450651313994832
 -22.3514614744537887 -46.5021034790949201 25.5890990022406228
 -19.7301006752356258 -40.1853877363608092 27.0471346200024740
 -21.0478511483526809 -43.3497950991822734 27.9147761225462254
 -18.4240623402799812 -37.0225272905831773 29.1003791373449516
 -14.9319791201214418 -36.4972019419495055 16.0543482044244747
 -12.2962904693823631 -30.1798971878248352 17.2285346200943259
 -13.6153635244998146 -33.3406644731482658 18.0959572963946691
 -10.9933691070068758 -27.0232087654450446 19.5624218218289840
 -12.3045270902548669 -30.1835759215908084 20.7945944604669144
 -9.6797807528857831 -23.8615751033620818 21.9100805087155202
 -10.9927325576600836 -27.0199289619896241 23.2347993485968800
 -8.3673437480000921 -20.6963087718901093 24.3450654349032902
 -9.6714369605277923 -23.8501918724723865 25.5890993057444227
 -7.0500764395419022 -17.5334749863234300 27.0471355305138914
 -8.3678262847286025 -20.6978829657880183 27.9147770330576428
 -5.7440379998155739 -14.3706145247717547 29.1003797443525656
 -7.0568349988123522 -17.5319630994865676 16.0543469904092539
 -4.4211464188453631 -11.2146593042610991 17.2285355306057397
 -5.7402196127320853 -14.3754256622334129 18.0959569928908657
 -3.1182246727731977 -8.0579712982347349 19.5624233393480118
 -4.4293832485655011 -11.2183373582877781 20.7945947639707214
 -1.8046359703414736 -4.8963385319548030 21.9100805087155202
 -3.1175882628894049 -8.0546912787155804 23.2347993485968800
 -0.4921992450755044 -1.7310724796427370 24.3450657384070936
 -1.7962926671445660 -4.8849556117730994 25.5890971812177881
 -23.6676725606942675 -49.6680065385627287 27.0471361375215018
 -0.4926821301146463 -1.7326457777376159 27.9147770330576428
 -22.3616343998939371 -46.5051456448835765 29.1003803513601760
 -11.8617148342709893 -21.2186374391884804 16.0543463834016435
 -9.2260267073853157 -14.9013327639340272 17.2285349235981293
 -10.5450997618090376 -18.0620993379700785 18.0959560823794519
 -14.9309411666208316 -36.5058271197454403 19.5624227323404014
 -9.2342635717977721 -14.9050105861229287 20.7945947639707214
 -13.6173524995751514 -33.3441948329151145 21.9100805087155202
 -14.9303048962000382 -36.5025468841625553 23.2347990450930730
 -12.3049154960769123 -30.1789299240178934 24.3450651313994832
 -13.6090090569152462 -33.3328121287971442 25.5890977882253985
 -10.9876481515389504 -27.0160949477142402 27.0471355305138914
 -12.3053988348910934 -30.1805030533711687 27.9147761225462254
 -9.6816103043569353 -23.8532333900698426 29.1003803513601760
 -10.9944071985830316 -27.0145819490106120 16.0543482044244747
 -8.3587188614622701 -20.6972765309206927 17.2285337095829085
 -9.6777913934200441 -23.8580444486612855 18.0959557788756449
 -7.0557974290084191 -17.5405878609290795 19.5624218218289840
 -8.3669553775640928 -20.7009552489126207 20.7945941569631110
 -5.7422089361180548 -14.3789551261972335 21.9100805087155202
 -7.0551608095832652 -17.5373078098618400 23.2347993485968800
 -4.4297713400755034 -11.2136913133927383 24.3450648278956798
 -5.7338650049907915 -14.3675728226586497 25.5890986987368159
 -3.1125038921543156 -8.0508577438897948 27.0471340129948672
 -4.4302540509593298 -11.2152650593891305 27.9147752120348080
 -1.8064661150506618 -4.8879964338572179 29.1003767093145136
 -15.7992872789690750 -30.7012567997102082 16.0543506324549163
 -13.1635989071559951 -24.3839516134580698 17.2285334060791051
 -14.4826715438844502 -27.5447195469727077 18.0959563858832553
 -11.8606773345454215 -21.2272624482428149 19.5624212148213736
 -13.1718356327991781 -24.3876303629980846 20.7945938534593040
 -10.5470885967276526 -18.0656292025132821 21.9100805087155202
 -11.8600412042813517 -21.2239827078835681 23.2347996521006834
 -9.2346512442250503 -14.9003644781317153 24.3450651313994832
 -10.5387451193754274 -18.0542467302330927 25.5890986987368159
 -14.9252205261586735 -36.4987140606241454 27.0471343164986671
 -9.2351343048069641 -14.9019387508998378 27.9147761225462254
 -13.6191822258953437 -33.3358533830087325 29.1003776198259310
 -19.7368594440474361 -40.1838758810720336 16.0543466869054505
 -17.1011708286944035 -33.8665716063969668 17.2285349235981293
 -18.4202435341137694 -37.0273383649486618 18.0959572963946691
 -15.7982491873929192 -30.7098836161446442 19.5624233393480118
 -17.1094070651765051 -33.8702500452289854 20.7945947639707214
 -14.4846604842674687 -27.5482501385773304 21.9100805087155202
 -15.7976127775091264 -30.7066035966254915 23.2347993485968800
 -13.1722233052264617 -24.3829842550068747 24.3450657384070936
 -14.4763170762998818 -27.5368672026215862 25.5890983952330124
 -11.8549564151572646 -21.2201498212489881 27.0471358340176948
 -13.1727063998069625 -24.3845575846498370 27.9147773365614427
 -10.5489184638982962 -18.0572889591179262 29.1003794408487586
 -7.6401255629700495 -14.2309681068520355  3.0701194478123401
 -5.5130670625979565 -16.5305695435701878  6.3824989713175349
 -20.8460384880766902 -45.1628861624264104  9.8003700438608252
 -11.6757141391127828 -22.6838996462427183 13.0610698499620348
 -10.7449668874105004 -17.3338356698691811  3.0908769835477052
 -8.6009785236825387 -19.6163124894628496  6.3907855357054499
 -6.4564503760048293 -21.9433838410036302  9.8058498050601006
 -14.7851648006664238 -25.8188454466449144 13.0615487789663245
 -12.6474082152679710 -28.0512608697893810  3.0940203724560900
 -3.5014648057899063 -5.6624782774337437  6.3635108627653203
 -18.9250035995454375 -34.3368166752739086  9.7449869730282312
 -16.7840380884710854 -36.5951257963569603 13.0462103036692358
 -15.7415840533045746 -31.2048240017640701  3.0019336759734299
 -13.6975246762055587 -33.5677965488003025  6.3515106258194249
 -4.5462377081920105 -11.0988618140352777  9.7617643598648254
 -19.9097990329456387 -39.7384371671874135 13.0518011472611413
 -18.9487962417454909 -34.3535986353472538  2.9959901609601149
 -16.7886640143880221 -36.6210128391576362  6.3375919413221249
 -7.6608943213659577 -14.1938138411272394  9.7787381136632554
 -5.5048927986314959 -16.4836339620652943 13.0509995937121346
 -4.5408268081429251 -11.1987404704489304  3.0808513423571400
 -19.8983155713021596 -39.7683561200558131  6.3845794899008101
 -10.7407148157207200 -17.2800407267140308  9.7936838550366740
 -8.6017597275264350 -19.6060819200042502 13.0539957832750950
 -20.8402265647905729 -45.1753149941169383  3.0888016245291148
 -11.6862088733454073 -22.7009052681091141  6.3907697535075902
 -9.5393736547933088 -25.0339810839722929  9.7973899399995297
 -17.9032210413701662 -28.9720161196666837 13.0562872370028451
 -6.4377782107525370 -21.9021879245341466  3.1035227730868349
 -14.7891928083695916 -25.8006854364510900  6.3919127488372194
 -12.6400887979907033 -28.1256682481746445  9.7798374044449634
 -3.4997984289736901 -5.6736850225744426 13.0542853259050649
 -9.5472233311476717 -25.0212128236693871  3.0853878137304749
 -17.8880208876753493 -28.9312161139844797  6.3538400175228000
 -15.7434162243323001 -31.2278816463921238  9.7529651775502657
 -13.6998849836584320 -33.5624579438723245 13.0522281771147757
