Cl Na  O                                
   1.00000000000000     
    -8.9073273000000004    8.9073273000000004    0.0000000000000000
   -17.8146546000000008    0.0000000000000000    0.0000000000000000
     0.0000000000000000    0.0000000000000000   43.3240854150290744
   Cl   Na   O 
    32   204    32
Direct
  0.2013997021631795  0.0281787785881562  0.0808944855561009
  0.2014026621631757  0.0281763185881587  0.1858534530186091
  0.2014037921631768  0.0281767285881571  0.2900235394586304
  0.2014033821631784  0.0281771285881618  0.3930595313867471
  0.2014229021631806  0.2781575685881563  0.0809243008093929
  0.2014032821631773  0.2781770985881593  0.1858545424220992
  0.2014033821631784  0.2781772985881616  0.2899992858968119
  0.2014034621631779  0.2781771085881601  0.3931263035384163
  0.2014013521631810  0.5281764885881586  0.0808950716679178
  0.2014033621631768  0.5281768085881566  0.1858534721309510
  0.2014037821631760  0.5281768585881608  0.2900234884923805
  0.2014033721631776  0.5281771685881580  0.3930595504990890
  0.2014228321631819  0.7781565785881597  0.0809243135509590
  0.2014026121631787  0.7781782985881591  0.1858543067032130
  0.2014098421631800  0.7781720785881561  0.2899939408118755
  0.2014033821631784  0.7781771485881563  0.3931262589429494
  0.7014015121631800  0.0281766485881576  0.0808949569938662
  0.7014036321631778  0.0281769885881573  0.1858534275354913
  0.7014040121631808  0.0281768085881566  0.2900235458294063
  0.7014033421631751  0.0281771385881626  0.3930595313867471
  0.7014226821631766  0.2781566685881600  0.0809243326633009
  0.7014026421631812  0.2781782785881575  0.1858543576694629
  0.7014097321631780  0.2781721285881602  0.2899939344410924
  0.7014033621631768  0.2781771785881588  0.3931262653137324
  0.7014001221631787  0.5281786685881613  0.0808946193424944
  0.7014030021631754  0.5281764285881607  0.1858535103556349
  0.7014037921631768  0.5281768985881570  0.2900234948631635
  0.7014032521631819  0.5281771785881588  0.3930595377575301
  0.7014236021631817  0.7781568885881569  0.0809243581464187
  0.7014019321631793  0.7781789785881585  0.1858547590286364
  0.7014098521631809  0.7781720085881574  0.2899939726657763
  0.7014033221631806  0.7781772285881559  0.3931262653137324
  0.4514005321631771  0.0281755185881565  0.0816688985358098
  0.2011870221631753  0.1531513785881558  0.0288982637594799
  0.4514087621631759  0.0281730185881557  0.1859302081835068
  0.2013822121631819  0.1544214185881572  0.1338072460772537
  0.4514046221631816  0.0281765985881606  0.2900852277273600
  0.2012128321631792  0.1529628285881586  0.2380507939885916
  0.4514062021631773  0.0281749185881566  0.3934682615589224
  0.2013799421631788  0.1522868085881584  0.3424100225344091
  0.4512673221631758  0.1531503285881612  0.0288617018495074
  0.4514097721631813  0.2781717785881597  0.0816958660501683
  0.2016575521631765  0.4031783685881578  0.0289017039810133
  0.4540407921631768  0.1518174985881586  0.1336739948298273
  0.4514051521631757  0.2781755785881614  0.1859000998743028
  0.2014223421631769  0.4019324185881601  0.1338078576721955
  0.4509688021631817  0.1533657785881601  0.2380149201229287
  0.4514055521631803  0.2781756485881601  0.2901253317913586
  0.2016001421631799  0.4033835785881621  0.2380492331473434
  0.4496994321631789  0.1540137785881583  0.3423015281404673
  0.4514053521631780  0.2781753385881558  0.3935345559020433
  0.2014290821631803  0.4040670285881589  0.3424098632648906
  0.4515526921631761  0.4031860485881609  0.0288523559143385
  0.4514092521631810  0.5281722285881614  0.0816698668944653
  0.2011887321631818  0.6531512985881562  0.0288979324788912
  0.4487603321631752  0.4045348485881561  0.1336738483018749
  0.4513935321631806  0.5281821285881563  0.1859319028111557
  0.2013826221631803  0.6544211485881561  0.1338074499422390
  0.4518399021631794  0.4029884585881618  0.2380155826841133
  0.4514044121631784  0.5281768085881566  0.2900856099741986
  0.2012116621631819  0.6529626585881587  0.2380514183250924
  0.4531099621631753  0.4023393485881570  0.3423016810392028
  0.4514062521631814  0.5281748585881587  0.3934684144576579
  0.2013799221631771  0.6522867285881588  0.3424101117253358
  0.4512682621631754  0.6531502385881609  0.0288620649840041
  0.4513947021631779  0.7781801985881600  0.0816971083523867
  0.2016574421631816  0.9031788985881590  0.0289019014752157
  0.4540513021631796  0.6518106485881603  0.1336732430777161
  0.4514114621631791  0.7781739185881591  0.1859008771095390
  0.2014185421631751  0.9019279685881614  0.1338160823499734
  0.4509699021631803  0.6533654385881604  0.2380155380886464
  0.4514053421631772  0.7781765585881573  0.2901252744543328
  0.2016004021631801  0.9033836685881624  0.2380495835402741
  0.4496995821631771  0.6540137285881613  0.3423016109606110
  0.4514053521631780  0.7781753885881599  0.3935345495312603
  0.2014292721631818  0.9040672285881612  0.3424099269726995
  0.4515519121631755  0.9031862785881586  0.0288524068805884
  0.4487616421631770  0.9045344785881611  0.1336742178071475
  0.4518400921631809  0.9029890385881600  0.2380148118196530
  0.4531098821631758  0.9023394785881607  0.3423015408820262
  0.9514091021631756  0.0281723885881604  0.0816698222989984
  0.7011888221631821  0.1531511885881613  0.0288979197373251
  0.9513934921631773  0.0281821285881563  0.1859318836988137
  0.7013831221631790  0.1544208685881614  0.1338074499422390
  0.9514045521631758  0.0281766385881568  0.2900856036034227
  0.7012119021631804  0.1529621185881567  0.2380515457407029
  0.9514063021631785  0.0281748485881579  0.3934684080868749
  0.7013799321631780  0.1522866685881610  0.3424101180961188
  0.9512684521631769  0.1531500985881564  0.0288620904671291
  0.9513956121631821  0.2781792485881596  0.0816971210939528
  0.7016575321631819  0.4031787585881617  0.0289019205875576
  0.9540513921631799  0.1518102985881598  0.1336732749316170
  0.9514128821631758  0.2781726285881589  0.1859008834803220
  0.7014187921631816  0.4019274285881593  0.1338162161363670
  0.9509708721631753  0.1533647885881564  0.2380157037289408
  0.9514063421631818  0.2781756185881576  0.2901253954991674
  0.7016008321631801  0.4033834685881601  0.2380496153941749
  0.9496996221631804  0.1540137085881597  0.3423015982190520
  0.9514054921631754  0.2781752485881626  0.3935345559020433
  0.7014293421631805  0.4040671185881592  0.3424099906805083
  0.9515520821631753  0.4031862085881599  0.0288524132513643
  0.9514007221631786  0.5281753385881558  0.0816690896592291
  0.7011871221631765  0.6531514185881591  0.0288982573887040
  0.9487593121631761  0.4045354985881602  0.1336737654817242
  0.9514086521631810  0.5281730685881598  0.1859304757562938
  0.7013819921631779  0.6544216885881582  0.1338070740661834
  0.9518402721631816  0.4029887385881565  0.2380153851899109
  0.9514043921631767  0.5281767885881621  0.2900853997384374
  0.7012127521631797  0.6529619085881606  0.2380516094485117
  0.9531102421631772  0.4023392785881583  0.3423015982190520
  0.9514064221631813  0.5281747985881609  0.3934683634914151
  0.7013800121631775  0.6522866785881618  0.3424101180961188
  0.9512672221631817  0.6531503285881612  0.0288617400741913
  0.9514088221631809  0.7781727185881593  0.0816958087131425
  0.7016576021631806  0.9031784185881619  0.0289016721271125
  0.9540404921631804  0.6518178985881562  0.1336738291895330
  0.9514037021631765  0.7781768785881624  0.1859000998743028
  0.7014223621631785  0.9019314585881588  0.1338082335482511
  0.9509704221631807  0.6533650785881591  0.2380157419536246
  0.9514045721631774  0.7781765785881589  0.2901252808251158
  0.7015961021631796  0.9033922085881585  0.2380505009326868
  0.9496993621631802  0.6540137785881583  0.3423016109606110
  0.9514054421631783  0.7781753085881604  0.3935345622728263
  0.7014291121631757  0.9040672585881566  0.3424098632648906
  0.9515526221631774  0.9031861285881604  0.0288523113188788
  0.9487593421631786  0.9045355285881556  0.1336736954031394
  0.9518398221631799  0.9029887185881620  0.2380155763133303
  0.9531096921631814  0.9023394885881615  0.3423016428145189
  0.1990163116493093  0.0544901851032549  0.4960923829198478
  0.1986077616493134  0.2215934551032603  0.4497827624471853
  0.1991000016493132  0.0544149451032609  0.5905199929227720
  0.1991836916493099  0.2210738451032555  0.5413519500044188
  0.1986831816493080  0.0546882051032540  0.6865422792655806
  0.1988510716493082  0.2212503151032550  0.6392099049632236
  0.1985983316493076  0.0548226651032593  0.7817743437824021
  0.1986418916493093  0.2214152951032560  0.7344932978312642
  0.1987270316493124  0.0546516151032606  0.8795443119082478
  0.1988377916493107  0.2213978251032600  0.8304834756187205
  0.1986030016493103  0.0547774051032590  0.9710011519055826
  0.1988357916493086  0.2212087451032545  0.9248512808061236
  0.5316389016493090  0.0535803051032602  0.4963030720384509
  0.5327040316493097  0.2204299851032587  0.4498504122425686
  0.5311434116493103  0.0537389451032553  0.5907645959945640
  0.5331620316493115  0.2192054851032594  0.5419746665328304
  0.5324947116493135  0.0527462451032576  0.6861995775137189
  0.5322414316493109  0.2197580651032567  0.6387439180169991
  0.5314405116493077  0.0535879251032583  0.7821844767388768
  0.5324717316493093  0.2193636251032558  0.7348212082743402
  0.5329120416493112  0.0526480251032595  0.8789737333264895
  0.5312861016493073  0.2201179751032569  0.8301213111923644
  0.5330279716493109  0.0536950151032585  0.9711102691796540
  0.5319730116493133  0.2200738651032594  0.9245550012570760
  0.1990082816493128  0.3878193251032584  0.4960820686738785
  0.1985029516493100  0.5551115351032578  0.4498229102852989
  0.1989487916493076  0.3878664851032596  0.5905440783872606
  0.1991884716493075  0.5544324251032577  0.5413500636470303
  0.1987467316493081  0.3880218651032550  0.6864941650082841
  0.1989732916493097  0.5545539851032544  0.6392147949197096
  0.1986219416493142  0.3881214551032599  0.7817903332924416
  0.1986534016493096  0.5548032051032550  0.7344608492458278
  0.1988538316493091  0.3879006451032581  0.8795047388829005
  0.1986096316493118  0.5548469251032557  0.8305175191071825
  0.1989070416493135  0.3878702851032543  0.9710236262751337
  0.1988926516493095  0.5545339051032556  0.9248693995521791
  0.8663138316493075  0.0555930451032580  0.4962928306560741
  0.8646984216493081  0.2221667551032596  0.4498767321904822
  0.8669729316493076  0.0551222151032604  0.5907598679571606
  0.8647611116493081  0.2229823851032577  0.5420032695399044
  0.8649040116493083  0.0564498851032553  0.6861771921996649
  0.8657237016493085  0.2224225351032558  0.6387757108301244
  0.8655084916493081  0.0557024851032608  0.7822833850143880
  0.8648584316493100  0.2231689051032575  0.7348644487670555
  0.8648736616493125  0.0562713051032588  0.8789740328768048
  0.8667696616493075  0.2219478251032569  0.8302537933909804
  0.8650184216493102  0.0551995751032592  0.9711476886811212
  0.8656192016493094  0.2223111051032589  0.9246810471719087
  0.5316141816493101  0.3869109851032562  0.4963090225649722
  0.5332867316493122  0.5534563051032606  0.4499115043148478
  0.5311897216493122  0.3870662051032596  0.5907692187845512
  0.5334711416493079  0.5524865251032551  0.5419305354851289
  0.5326406716493111  0.3859913251032552  0.6861276611503371
  0.5326410916493103  0.5532846351032603  0.6388070583657566
  0.5317836816493084  0.3866238551032595  0.7822608944529321
  0.5326967716493130  0.5524861151032567  0.7348033647907357
  0.5329343916493130  0.3860923751032601  0.8789987012500120
  0.5312507816493124  0.5534849951032541  0.8302154266628463
  0.5328599516493142  0.3871299551032550  0.9711098724778893
  0.5317913716493123  0.5534719251032598  0.9246667416203920
  0.1989733316493130  0.7212386651032574  0.4961092629848736
  0.1984184616493110  0.8883581451032541  0.4498277516660636
  0.1992478216493083  0.7209864751032597  0.5905369701392473
  0.1992142916493123  0.8876445351032558  0.5413869811993237
  0.1987183716493135  0.7212770451032569  0.6865203473249721
  0.1990708916493134  0.8877536951032567  0.6392511619471009
  0.1987587016493109  0.7214727751032584  0.7817685875587870
  0.1987650616493113  0.8881132451032556  0.7345045593039004
  0.1990541216493114  0.7212762151032592  0.8795759104184668
  0.1987211216493137  0.8881066151032542  0.8304768207441668
  0.1985615016493085  0.7213292251032541  0.9710173519104330
  0.1989371716493125  0.8878427151032540  0.9248401974444818
  0.8664128916493112  0.3888361851032585  0.4963194177704864
  0.8647858516493088  0.5555655451032564  0.4498818812175145
  0.8669818816493091  0.3886241651032591  0.5907320259698068
  0.8647466216493100  0.5564342451032545  0.5420272659488958
  0.8651772416493131  0.3897573651032573  0.6861828917515993
  0.8656101416493129  0.5559220451032587  0.6387846163800219
  0.8655174216493080  0.3888036651032607  0.7823114455925122
  0.8648990816493125  0.5564744751032578  0.7348533168296925
  0.8650623716493087  0.3894578651032603  0.8790323237488451
  0.8666821816493098  0.5552614351032545  0.8302308980318003
  0.8649164116493111  0.3887817951032559  0.9711078970650036
  0.8658976016493085  0.5556017451032602  0.9246517074329788
  0.5317912616493103  0.7202988751032606  0.4963471059347029
  0.5329445216493127  0.8869341351032602  0.4498620866088814
  0.5313080516493116  0.7203215651032551  0.5907614061885056
  0.5333734316493093  0.8858592551032558  0.5419430599266590
  0.5323253816493079  0.7195681651032544  0.6862252578812331
  0.5323036916493109  0.8865178151032538  0.6387798721507139
  0.5318027416493081  0.7199813751032593  0.7822577208387855
  0.5326360516493125  0.8859508351032588  0.7347830196572005
  0.5328797316493095  0.7194932651032602  0.8789691995919995
  0.5308784316493131  0.8870620851032598  0.8301481573773231
  0.5329477416493091  0.7203595851032603  0.9711284526933497
  0.5318222516493094  0.8867980851032584  0.9246359203218049
  0.8663394516493099  0.7222738251032581  0.4963133862844202
  0.8647399316493107  0.8888115651032606  0.4498800110520378
  0.8669112016493088  0.7219552151032573  0.5907658184836819
  0.8646029916493134  0.8896726551032543  0.5420309900879445
  0.8650583816493125  0.7231563651032573  0.6862046131973827
  0.8656862716493094  0.8891695651032592  0.6387786253737247
  0.8653948916493093  0.7223411051032542  0.7822789322394428
  0.8650029816493117  0.8896458151032576  0.7348729333273241
  0.8647284616493138  0.7229749551032540  0.8790107156464160
  0.8666545716493133  0.8886195651032551  0.8302373181236788
  0.8650254816493117  0.7219439951032598  0.9711434302090822
  0.8655118116493128  0.8891884951032551  0.9246442429629766
  0.4514370621631798  0.0281554685881602  0.0299396952672737
  0.4514044421631809  0.0281742385881572  0.1338248294317665
  0.4514047221631756  0.0281767985881558  0.2380301526593840
  0.4514055421631795  0.0281756485881601  0.3422581686075716
  0.4514380221631811  0.2781562285881591  0.0299460469355566
  0.4514033321631814  0.2781753085881604  0.1338280849006637
  0.4514049921631766  0.2781762085881567  0.2380239921145275
  0.4514054821631817  0.2781759785881590  0.3423042994300332
  0.4514375921631810  0.5281553285881557  0.0299401667050461
  0.4514026021631778  0.5281742885881613  0.1338258742397898
  0.4514049221631780  0.5281763085881579  0.2380310509394548
  0.4514054421631783  0.5281757085881580  0.3422583406186490
  0.4514370621631798  0.7781569585881556  0.0299466585304913
  0.4514005321631771  0.7781760285881560  0.1338289131021426
  0.4514053321631764  0.7781766785881601  0.2380242087210718
  0.4514050821631770  0.7781762485881600  0.3423042803176912
  0.9514376021631819  0.0281553185881620  0.0299401412219211
  0.9514026721631765  0.0281742085881618  0.1338258614982237
  0.9514047721631798  0.0281764485881624  0.2380310445686717
  0.9514054721631808  0.0281756585881610  0.3422583342478660
  0.9514370721631806  0.2781569285881602  0.0299466776428332
  0.9514007721631756  0.2781756285881585  0.1338289385852676
  0.9514061221631778  0.2781760985881618  0.2380242660580976
  0.9514050921631778  0.2781759685881582  0.3423043440255000
  0.9514370421631781  0.5281554885881619  0.0299397971997664
  0.9514042321631777  0.5281744285881587  0.1338249313642521
  0.9514054621631800  0.5281760285881560  0.2380305094230977
  0.9514050321631800  0.5281761385881580  0.3422583597309909
  0.9514379721631769  0.7781562585881616  0.0299460278232146
  0.9514029321631767  0.7781757185881588  0.1338280403051968
  0.9514048721631809  0.7781767585881596  0.2380239411482847
  0.9514050121631783  0.7781762485881600  0.3423042866884742
 
  0.00000000E+00  0.00000000E+00  0.00000000E+00
  0.00000000E+00  0.00000000E+00  0.00000000E+00
  0.00000000E+00  0.00000000E+00  0.00000000E+00
  0.00000000E+00  0.00000000E+00  0.00000000E+00
  0.00000000E+00  0.00000000E+00  0.00000000E+00
  0.00000000E+00  0.00000000E+00  0.00000000E+00
  0.00000000E+00  0.00000000E+00  0.00000000E+00
  0.00000000E+00  0.00000000E+00  0.00000000E+00
  0.00000000E+00  0.00000000E+00  0.00000000E+00
  0.00000000E+00  0.00000000E+00  0.00000000E+00
  0.00000000E+00  0.00000000E+00  0.00000000E+00
  0.00000000E+00  0.00000000E+00  0.00000000E+00
  0.00000000E+00  0.00000000E+00  0.00000000E+00
  0.00000000E+00  0.00000000E+00  0.00000000E+00
  0.00000000E+00  0.00000000E+00  0.00000000E+00
  0.00000000E+00  0.00000000E+00  0.00000000E+00
  0.00000000E+00  0.00000000E+00  0.00000000E+00
  0.00000000E+00  0.00000000E+00  0.00000000E+00
  0.00000000E+00  0.00000000E+00  0.00000000E+00
  0.00000000E+00  0.00000000E+00  0.00000000E+00
  0.00000000E+00  0.00000000E+00  0.00000000E+00
  0.00000000E+00  0.00000000E+00  0.00000000E+00
  0.00000000E+00  0.00000000E+00  0.00000000E+00
  0.00000000E+00  0.00000000E+00  0.00000000E+00
  0.00000000E+00  0.00000000E+00  0.00000000E+00
  0.00000000E+00  0.00000000E+00  0.00000000E+00
  0.00000000E+00  0.00000000E+00  0.00000000E+00
  0.00000000E+00  0.00000000E+00  0.00000000E+00
  0.00000000E+00  0.00000000E+00  0.00000000E+00
  0.00000000E+00  0.00000000E+00  0.00000000E+00
  0.00000000E+00  0.00000000E+00  0.00000000E+00
  0.00000000E+00  0.00000000E+00  0.00000000E+00
  0.00000000E+00  0.00000000E+00  0.00000000E+00
  0.00000000E+00  0.00000000E+00  0.00000000E+00
  0.00000000E+00  0.00000000E+00  0.00000000E+00
  0.00000000E+00  0.00000000E+00  0.00000000E+00
  0.00000000E+00  0.00000000E+00  0.00000000E+00
  0.00000000E+00  0.00000000E+00  0.00000000E+00
  0.00000000E+00  0.00000000E+00  0.00000000E+00
  0.00000000E+00  0.00000000E+00  0.00000000E+00
  0.00000000E+00  0.00000000E+00  0.00000000E+00
  0.00000000E+00  0.00000000E+00  0.00000000E+00
  0.00000000E+00  0.00000000E+00  0.00000000E+00
  0.00000000E+00  0.00000000E+00  0.00000000E+00
  0.00000000E+00  0.00000000E+00  0.00000000E+00
  0.00000000E+00  0.00000000E+00  0.00000000E+00
  0.00000000E+00  0.00000000E+00  0.00000000E+00
  0.00000000E+00  0.00000000E+00  0.00000000E+00
  0.00000000E+00  0.00000000E+00  0.00000000E+00
  0.00000000E+00  0.00000000E+00  0.00000000E+00
  0.00000000E+00  0.00000000E+00  0.00000000E+00
  0.00000000E+00  0.00000000E+00  0.00000000E+00
  0.00000000E+00  0.00000000E+00  0.00000000E+00
  0.00000000E+00  0.00000000E+00  0.00000000E+00
  0.00000000E+00  0.00000000E+00  0.00000000E+00
  0.00000000E+00  0.00000000E+00  0.00000000E+00
  0.00000000E+00  0.00000000E+00  0.00000000E+00
  0.00000000E+00  0.00000000E+00  0.00000000E+00
  0.00000000E+00  0.00000000E+00  0.00000000E+00
  0.00000000E+00  0.00000000E+00  0.00000000E+00
  0.00000000E+00  0.00000000E+00  0.00000000E+00
  0.00000000E+00  0.00000000E+00  0.00000000E+00
  0.00000000E+00  0.00000000E+00  0.00000000E+00
  0.00000000E+00  0.00000000E+00  0.00000000E+00
  0.00000000E+00  0.00000000E+00  0.00000000E+00
  0.00000000E+00  0.00000000E+00  0.00000000E+00
  0.00000000E+00  0.00000000E+00  0.00000000E+00
  0.00000000E+00  0.00000000E+00  0.00000000E+00
  0.00000000E+00  0.00000000E+00  0.00000000E+00
  0.00000000E+00  0.00000000E+00  0.00000000E+00
  0.00000000E+00  0.00000000E+00  0.00000000E+00
  0.00000000E+00  0.00000000E+00  0.00000000E+00
  0.00000000E+00  0.00000000E+00  0.00000000E+00
  0.00000000E+00  0.00000000E+00  0.00000000E+00
  0.00000000E+00  0.00000000E+00  0.00000000E+00
  0.00000000E+00  0.00000000E+00  0.00000000E+00
  0.00000000E+00  0.00000000E+00  0.00000000E+00
  0.00000000E+00  0.00000000E+00  0.00000000E+00
  0.00000000E+00  0.00000000E+00  0.00000000E+00
  0.00000000E+00  0.00000000E+00  0.00000000E+00
  0.00000000E+00  0.00000000E+00  0.00000000E+00
  0.00000000E+00  0.00000000E+00  0.00000000E+00
  0.00000000E+00  0.00000000E+00  0.00000000E+00
  0.00000000E+00  0.00000000E+00  0.00000000E+00
  0.00000000E+00  0.00000000E+00  0.00000000E+00
  0.00000000E+00  0.00000000E+00  0.00000000E+00
  0.00000000E+00  0.00000000E+00  0.00000000E+00
  0.00000000E+00  0.00000000E+00  0.00000000E+00
  0.00000000E+00  0.00000000E+00  0.00000000E+00
  0.00000000E+00  0.00000000E+00  0.00000000E+00
  0.00000000E+00  0.00000000E+00  0.00000000E+00
  0.00000000E+00  0.00000000E+00  0.00000000E+00
  0.00000000E+00  0.00000000E+00  0.00000000E+00
  0.00000000E+00  0.00000000E+00  0.00000000E+00
  0.00000000E+00  0.00000000E+00  0.00000000E+00
  0.00000000E+00  0.00000000E+00  0.00000000E+00
  0.00000000E+00  0.00000000E+00  0.00000000E+00
  0.00000000E+00  0.00000000E+00  0.00000000E+00
  0.00000000E+00  0.00000000E+00  0.00000000E+00
  0.00000000E+00  0.00000000E+00  0.00000000E+00
  0.00000000E+00  0.00000000E+00  0.00000000E+00
  0.00000000E+00  0.00000000E+00  0.00000000E+00
  0.00000000E+00  0.00000000E+00  0.00000000E+00
  0.00000000E+00  0.00000000E+00  0.00000000E+00
  0.00000000E+00  0.00000000E+00  0.00000000E+00
  0.00000000E+00  0.00000000E+00  0.00000000E+00
  0.00000000E+00  0.00000000E+00  0.00000000E+00
  0.00000000E+00  0.00000000E+00  0.00000000E+00
  0.00000000E+00  0.00000000E+00  0.00000000E+00
  0.00000000E+00  0.00000000E+00  0.00000000E+00
  0.00000000E+00  0.00000000E+00  0.00000000E+00
  0.00000000E+00  0.00000000E+00  0.00000000E+00
  0.00000000E+00  0.00000000E+00  0.00000000E+00
  0.00000000E+00  0.00000000E+00  0.00000000E+00
  0.00000000E+00  0.00000000E+00  0.00000000E+00
  0.00000000E+00  0.00000000E+00  0.00000000E+00
  0.00000000E+00  0.00000000E+00  0.00000000E+00
  0.00000000E+00  0.00000000E+00  0.00000000E+00
  0.00000000E+00  0.00000000E+00  0.00000000E+00
  0.00000000E+00  0.00000000E+00  0.00000000E+00
  0.00000000E+00  0.00000000E+00  0.00000000E+00
  0.00000000E+00  0.00000000E+00  0.00000000E+00
  0.00000000E+00  0.00000000E+00  0.00000000E+00
  0.00000000E+00  0.00000000E+00  0.00000000E+00
  0.00000000E+00  0.00000000E+00  0.00000000E+00
  0.00000000E+00  0.00000000E+00  0.00000000E+00
  0.00000000E+00  0.00000000E+00  0.00000000E+00
  0.00000000E+00  0.00000000E+00  0.00000000E+00
  0.00000000E+00  0.00000000E+00  0.00000000E+00
  0.00000000E+00  0.00000000E+00  0.00000000E+00
  0.00000000E+00  0.00000000E+00  0.00000000E+00
  0.00000000E+00  0.00000000E+00  0.00000000E+00
  0.00000000E+00  0.00000000E+00  0.00000000E+00
  0.00000000E+00  0.00000000E+00  0.00000000E+00
  0.00000000E+00  0.00000000E+00  0.00000000E+00
  0.00000000E+00  0.00000000E+00  0.00000000E+00
  0.00000000E+00  0.00000000E+00  0.00000000E+00
  0.00000000E+00  0.00000000E+00  0.00000000E+00
  0.00000000E+00  0.00000000E+00  0.00000000E+00
  0.00000000E+00  0.00000000E+00  0.00000000E+00
  0.00000000E+00  0.00000000E+00  0.00000000E+00
  0.00000000E+00  0.00000000E+00  0.00000000E+00
  0.00000000E+00  0.00000000E+00  0.00000000E+00
  0.00000000E+00  0.00000000E+00  0.00000000E+00
  0.00000000E+00  0.00000000E+00  0.00000000E+00
  0.00000000E+00  0.00000000E+00  0.00000000E+00
  0.00000000E+00  0.00000000E+00  0.00000000E+00
  0.00000000E+00  0.00000000E+00  0.00000000E+00
  0.00000000E+00  0.00000000E+00  0.00000000E+00
  0.00000000E+00  0.00000000E+00  0.00000000E+00
  0.00000000E+00  0.00000000E+00  0.00000000E+00
  0.00000000E+00  0.00000000E+00  0.00000000E+00
  0.00000000E+00  0.00000000E+00  0.00000000E+00
  0.00000000E+00  0.00000000E+00  0.00000000E+00
  0.00000000E+00  0.00000000E+00  0.00000000E+00
  0.00000000E+00  0.00000000E+00  0.00000000E+00
  0.00000000E+00  0.00000000E+00  0.00000000E+00
  0.00000000E+00  0.00000000E+00  0.00000000E+00
  0.00000000E+00  0.00000000E+00  0.00000000E+00
  0.00000000E+00  0.00000000E+00  0.00000000E+00
  0.00000000E+00  0.00000000E+00  0.00000000E+00
  0.00000000E+00  0.00000000E+00  0.00000000E+00
  0.00000000E+00  0.00000000E+00  0.00000000E+00
  0.00000000E+00  0.00000000E+00  0.00000000E+00
  0.00000000E+00  0.00000000E+00  0.00000000E+00
  0.00000000E+00  0.00000000E+00  0.00000000E+00
  0.00000000E+00  0.00000000E+00  0.00000000E+00
  0.00000000E+00  0.00000000E+00  0.00000000E+00
  0.00000000E+00  0.00000000E+00  0.00000000E+00
  0.00000000E+00  0.00000000E+00  0.00000000E+00
  0.00000000E+00  0.00000000E+00  0.00000000E+00
  0.00000000E+00  0.00000000E+00  0.00000000E+00
  0.00000000E+00  0.00000000E+00  0.00000000E+00
  0.00000000E+00  0.00000000E+00  0.00000000E+00
  0.00000000E+00  0.00000000E+00  0.00000000E+00
  0.00000000E+00  0.00000000E+00  0.00000000E+00
  0.00000000E+00  0.00000000E+00  0.00000000E+00
  0.00000000E+00  0.00000000E+00  0.00000000E+00
  0.00000000E+00  0.00000000E+00  0.00000000E+00
  0.00000000E+00  0.00000000E+00  0.00000000E+00
  0.00000000E+00  0.00000000E+00  0.00000000E+00
  0.00000000E+00  0.00000000E+00  0.00000000E+00
  0.00000000E+00  0.00000000E+00  0.00000000E+00
  0.00000000E+00  0.00000000E+00  0.00000000E+00
  0.00000000E+00  0.00000000E+00  0.00000000E+00
  0.00000000E+00  0.00000000E+00  0.00000000E+00
  0.00000000E+00  0.00000000E+00  0.00000000E+00
  0.00000000E+00  0.00000000E+00  0.00000000E+00
  0.00000000E+00  0.00000000E+00  0.00000000E+00
  0.00000000E+00  0.00000000E+00  0.00000000E+00
  0.00000000E+00  0.00000000E+00  0.00000000E+00
  0.00000000E+00  0.00000000E+00  0.00000000E+00
  0.00000000E+00  0.00000000E+00  0.00000000E+00
  0.00000000E+00  0.00000000E+00  0.00000000E+00
  0.00000000E+00  0.00000000E+00  0.00000000E+00
  0.00000000E+00  0.00000000E+00  0.00000000E+00
  0.00000000E+00  0.00000000E+00  0.00000000E+00
  0.00000000E+00  0.00000000E+00  0.00000000E+00
  0.00000000E+00  0.00000000E+00  0.00000000E+00
  0.00000000E+00  0.00000000E+00  0.00000000E+00
  0.00000000E+00  0.00000000E+00  0.00000000E+00
  0.00000000E+00  0.00000000E+00  0.00000000E+00
  0.00000000E+00  0.00000000E+00  0.00000000E+00
  0.00000000E+00  0.00000000E+00  0.00000000E+00
  0.00000000E+00  0.00000000E+00  0.00000000E+00
  0.00000000E+00  0.00000000E+00  0.00000000E+00
  0.00000000E+00  0.00000000E+00  0.00000000E+00
  0.00000000E+00  0.00000000E+00  0.00000000E+00
  0.00000000E+00  0.00000000E+00  0.00000000E+00
  0.00000000E+00  0.00000000E+00  0.00000000E+00
  0.00000000E+00  0.00000000E+00  0.00000000E+00
  0.00000000E+00  0.00000000E+00  0.00000000E+00
  0.00000000E+00  0.00000000E+00  0.00000000E+00
  0.00000000E+00  0.00000000E+00  0.00000000E+00
  0.00000000E+00  0.00000000E+00  0.00000000E+00
  0.00000000E+00  0.00000000E+00  0.00000000E+00
  0.00000000E+00  0.00000000E+00  0.00000000E+00
  0.00000000E+00  0.00000000E+00  0.00000000E+00
  0.00000000E+00  0.00000000E+00  0.00000000E+00
  0.00000000E+00  0.00000000E+00  0.00000000E+00
  0.00000000E+00  0.00000000E+00  0.00000000E+00
  0.00000000E+00  0.00000000E+00  0.00000000E+00
  0.00000000E+00  0.00000000E+00  0.00000000E+00
  0.00000000E+00  0.00000000E+00  0.00000000E+00
  0.00000000E+00  0.00000000E+00  0.00000000E+00
  0.00000000E+00  0.00000000E+00  0.00000000E+00
  0.00000000E+00  0.00000000E+00  0.00000000E+00
  0.00000000E+00  0.00000000E+00  0.00000000E+00
  0.00000000E+00  0.00000000E+00  0.00000000E+00
  0.00000000E+00  0.00000000E+00  0.00000000E+00
  0.00000000E+00  0.00000000E+00  0.00000000E+00
  0.00000000E+00  0.00000000E+00  0.00000000E+00
  0.00000000E+00  0.00000000E+00  0.00000000E+00
  0.00000000E+00  0.00000000E+00  0.00000000E+00
  0.00000000E+00  0.00000000E+00  0.00000000E+00
  0.00000000E+00  0.00000000E+00  0.00000000E+00
  0.00000000E+00  0.00000000E+00  0.00000000E+00
  0.00000000E+00  0.00000000E+00  0.00000000E+00
  0.00000000E+00  0.00000000E+00  0.00000000E+00
  0.00000000E+00  0.00000000E+00  0.00000000E+00
  0.00000000E+00  0.00000000E+00  0.00000000E+00
  0.00000000E+00  0.00000000E+00  0.00000000E+00
  0.00000000E+00  0.00000000E+00  0.00000000E+00
  0.00000000E+00  0.00000000E+00  0.00000000E+00
  0.00000000E+00  0.00000000E+00  0.00000000E+00
  0.00000000E+00  0.00000000E+00  0.00000000E+00
  0.00000000E+00  0.00000000E+00  0.00000000E+00
  0.00000000E+00  0.00000000E+00  0.00000000E+00
  0.00000000E+00  0.00000000E+00  0.00000000E+00
  0.00000000E+00  0.00000000E+00  0.00000000E+00
  0.00000000E+00  0.00000000E+00  0.00000000E+00
  0.00000000E+00  0.00000000E+00  0.00000000E+00
  0.00000000E+00  0.00000000E+00  0.00000000E+00
  0.00000000E+00  0.00000000E+00  0.00000000E+00
  0.00000000E+00  0.00000000E+00  0.00000000E+00
  0.00000000E+00  0.00000000E+00  0.00000000E+00
  0.00000000E+00  0.00000000E+00  0.00000000E+00
  0.00000000E+00  0.00000000E+00  0.00000000E+00
  0.00000000E+00  0.00000000E+00  0.00000000E+00
  0.00000000E+00  0.00000000E+00  0.00000000E+00
  0.00000000E+00  0.00000000E+00  0.00000000E+00
  0.00000000E+00  0.00000000E+00  0.00000000E+00
  0.00000000E+00  0.00000000E+00  0.00000000E+00
  0.00000000E+00  0.00000000E+00  0.00000000E+00
  0.00000000E+00  0.00000000E+00  0.00000000E+00
  0.00000000E+00  0.00000000E+00  0.00000000E+00
  0.00000000E+00  0.00000000E+00  0.00000000E+00
  0.00000000E+00  0.00000000E+00  0.00000000E+00
