Cl Na  O 
 1.0000000000000000
    -8.9073273000000004    8.9073273000000004    0.0000000000000000
   -17.8146546000000008    0.0000000000000000    0.0000000000000000
     0.0000000000000000    0.0000000000000000   43.3240854150290744
 Cl  Na  O  
  32 204  32
Cartesian
 -2.2959282728878803  1.7939330652899503  3.5046796018372754
 -2.2959108145263722  1.7939594309787583  8.0519308732564205
 -2.2959281838146071  1.7939694962586072 12.5650045958746901
 -2.2959316576722544  1.7939658442544142 17.0289447109906966
 -6.7494207240571740  1.7941397152833103  3.5059713204177898
 -6.7495938824998865  1.7939649535216842  8.0519780706660953
 -6.7495983361635359  1.7939658442544142 12.5639538324909239
 -6.7495956639653460  1.7939665568405982 17.0318375533929149
 -11.2032294744188885  1.7939477623799953  3.5047049945956958
 -11.2032530788362354  1.7939656661078682  8.0519317012811520
 -11.2032577106464313  1.7939694071853343 12.5650023878087396
 -11.2032595811851632  1.7939657551811412 17.0289455390154245
 -15.6567297640362089  1.7941390917703992  3.5059718724342774
 -15.6569365921761143  1.7939589856123932  8.0519678583610776
 -15.6568901850008810  1.7940233855887722 12.5637222615744584
 -15.6569229639653447  1.7939658442544142 17.0318356213352082
 -6.7495700999359949  6.2476128375523627  3.5047000264473072
 -6.7495950404524354  6.2476317210862398  8.0519297692234453
 -6.7495952185989809  6.2476351058706125 12.5650048718829304
 -6.7495951295257077  6.2476291379613222 17.0289447109906966
 -11.2030663812560274  6.2478014056713045  3.5059727004590089
 -11.2032728531028400  6.2476229028322123  8.0519700664270282
 -11.2032264459276103  6.2476860557827703 12.5637219855662146
 -11.2032596702584382  6.2476293161078686 17.0318358973434556
 -15.6569210043533378  6.2476004563674161  3.5046853980103920
 -15.6569067526296575  6.2476261094700405  8.0519333573306149
 -15.6569221623058876  6.2476331462586066 12.5650026638169834
 -15.6569223404524340  6.2476283363018652 17.0289449869989404
 -20.1104057952211583  6.2478096004124204  3.5059738044919841
 -20.1106062991586789  6.2476165786298283  8.0519874549463815
 -20.1105526770483323  6.2476871246620451 12.5637236416156775
 -20.1105875046980778  6.2476289598147758 17.0318358973434556
 -4.5227094151955427  4.0207722833716097  3.5382303359167162
 -4.5203775659816765  1.7920386549197862  1.2519908474618093
 -4.5227381858627220  4.0208455906752887  8.0552562205765206
 -4.5447415111255474  1.7937772761354733  5.7970765582008861
 -4.5227650859911686  4.0208087143402667 12.5676771836984358
 -4.5172485109744587  1.7922685530373992 10.3133329318772553
 -4.5227492309485742  4.0208227879174006 17.0466525718817579
 -4.5066939516368700  1.7937570565025023 14.8346010632427294
 -6.7479059439765363  4.0195857383019771  1.2504068361512148
 -8.9763887420915900  4.0208545870758616  3.5393986788122982
 -8.9787131982237991  1.7962298196342552  1.2521398919134077
 -6.7488662429327491  4.0442899433487076  5.7913035697756579
 -8.9764152859269437  4.0208134352237357  8.0539518056167942
 -8.9544219368706965  1.7941347271800223  5.7971030549922817
 -6.7490850959645101  4.0169267229563808 10.3117787294569787
 -8.9764200958836859  4.0208169981546558 12.5694146555925279
 -8.9818575738339721  1.7957184499739622 10.3132653098575453
 -6.7493222980905090  4.0056200289015793 14.8299006428525182
 -8.9764127918752994  4.0208152166891953 17.0495247136656971
 -8.9925093121124018  1.7941947625660242 14.8345941630366340
 -11.2047478174304498  4.0221276222935778  1.2500019320577076
 -13.4300557768759656  4.0208499552656658  3.5382722891697584
 -13.4277186723389921  1.7920538864494693  1.2519764950331362
 -11.2039037590955015  3.9972551578341493  5.7912972215860501
 -13.4300921187713502  4.0207099320805098  8.0553296387693436
 -13.4520676531729944  1.7937809281396664  5.7970853904646846
 -11.2037860933018667  4.0246858957674103 10.3118074343143249
 -13.4300942565299000  4.0208068438015330 12.5676937441930576
 -13.4245623609102349  1.7922581314644583 10.3133599806851350
 -11.2035352629650991  4.0359987358780485 14.8299072670503662
 -13.4300759074356595  4.0208232332837657 17.0466591960796059
 -13.4140196483179555  1.7937568783559563 14.8346049273581428
 -15.6552400135452832  4.0195941111896385  1.2504225686211052
 -17.8837318080609116  4.0207203536534504  3.5394525004198210
 -17.8860489601847341  1.7962288398282522  1.2521484481689624
 -15.6561651285586603  4.0443835593586313  5.7912710008028983
 -17.8837692188355746  4.0208696404589990  8.0539854786225256
 -17.8616361138139865  1.7941008793362823  5.7974593816348987
 -15.6564161370419743  4.0169365210164107 10.3118055022566182
 -17.8837617366806398  4.0208151276159221 12.5694121715183336
 -17.8891887930579863  1.7957207658790604 10.3132804903109516
 -15.6566500434568727  4.0056213650006747 14.8299042309596878
 -17.8837409826080318  4.0208152166891953 17.0495244376574568
 -17.8998418674355122  1.7941964549582112 14.8345969231190757
 -20.1120722670857148  4.0221206745782832  1.2500041401236563
 -20.1112361362720620  3.9972668264329130  5.7913132300641843
 -20.1111254181937227  4.0246875881595976 10.3117740373168374
 -20.1108641662840171  4.0359980232918646 14.8299011948690058
 -8.9763936411216054  8.4745122691665689  3.5382703571120517
 -8.9740538643864411  6.2457183381089267  1.2519759430166486
 -8.9764281124782581  8.4743732257874171  8.0553288107446122
 -8.9984034687333594  6.2474490318033169  5.7970853904646846
 -8.9764288250644402  8.4744717408273544 12.5676934681848138
 -8.9708912287553044  6.2459239192230100 10.3133655008500078
 -8.9764125246554816  8.4744873286501292 17.0466589200713621
 -8.9603550185119527  6.2474206174292295 14.8346052033663831
 -11.2015755618858268  8.4732594535818251  1.2504236726540805
 -13.4300593398068830  8.4743921093212933  3.5394530524363050
 -13.4323836177925475  6.2498932914877088  1.2521492761936921
 -11.2024960450890081  8.4980480110180867  5.7912723808441173
 -13.4300952363359034  8.4745459388637645  8.0539857546307694
 -13.4079650707323257  6.2477667561681081  5.7974651778080153
 -11.2027495476239647  8.4706088111238902 10.3118126784709538
 -13.4300902482326148  8.4744876849432220 12.5694174156749661
 -13.4355254102778030  6.2493882460297998 10.3132818703521671
 -11.2029863934568734  8.4592853712937668 14.8299036789432002
 -13.4300760855822094  8.4744801137150176 17.0495247136656971
 -13.4461768813364149  6.2478607284711227 14.8345996832015103
 -15.6584088843055316  8.4757858388239242  1.2500044161319002
 -17.8836988509499051  8.4744376257637946  3.5382386161640271
 -17.8813701193005912  6.2457031956525162  1.2519905714535655
 -15.6575699031471469  8.4509097223603025  5.7912936334788840
 -17.8837290467894512  8.4745082608692837  8.0552678129227537
 -17.9057353114702842  6.2474389665234673  5.7970691059783066
 -15.6574580271162578  8.4783528414785110 10.3117988780587702
 -17.8837573720902654  8.4744703156549868 12.5676846359210153
 -17.8782223589060436  6.2459314904512153 10.3133682609324495
 -15.6572001599909196  8.4896648799296912 14.8299036789432002
 -17.8837400028020284  8.4744883975294041 17.0466569880136589
 -17.8676832092446816  6.2474213300154133 14.8346052033663831
 -20.1088960032438067  8.4732484975692461  1.2504084922006760
 -22.3373879759059832  8.4745097751149263  3.5393961947381039
 -22.3397054843228950  6.2498939150006194  1.2521385118721886
 -20.1098616465964000  8.4979509211505171  5.7912963935613186
 -22.3374164793533438  8.4744641695991501  8.0539518056167942
 -22.3153959629488270  6.2477985553265682  5.7971193394786598
 -20.1100780055765185  8.4706048028266050 10.3118143345204167
 -22.3374188843317114  8.4744719189739008 12.5694124475265774
 -22.3429662787008780  6.2493461143716704 10.3133202354980433
 -20.1103126245775989  8.4592830553886671 14.8299042309596878
 -22.3374040090951205  8.4744796683486516 17.0495249896739445
 -22.3535046267027830  6.2478586797858435 14.8345941630366340
 -24.5657395690899065  8.4757906487806665  1.2500000000000009
 -24.5648980048066043  8.4509099895801221  5.7912905973882021
 -24.5647809625258802  8.4783488331812258 10.3118071583060775
 -24.5645263020383737  8.4896599808996758 14.8299056110009033
 -2.7434272526038108  1.7727034258992149 21.4927487713648446
 -5.7166752016159368  1.7690643373307999 19.4864268184695639
 -2.7428323322134438  1.7734488801209518 25.5837386126684088
 -5.7125485259511199  1.7741943343426889 23.4535781215839272
 -2.7439876125642537  1.7697361279557660 29.7438163479306468
 -5.7127295228418564  1.7712315791361628 27.6931845207593028
 -2.7456271843003646  1.7689803412343610 33.8696584453071807
 -5.7138053498331507  1.7693683444115489 31.8212503720079525
 -2.7437263606545446  1.7701267142578709 38.1054528954159792
 -5.7152390732353586  1.7711132898296189 35.9799370334757498
 -2.7448624902516596  1.7690219384528518 42.0677368432490653
 -5.7118528636889909  1.7710954751750190 40.0683358858434673
 -5.6899963311800699  4.7354817024029217 21.5018766847351728
 -8.6718532120276457  4.7449691639299703 19.4893576839830303
 -5.6884089563819362  4.7310682107990445 25.5943358170435147
 -8.6541187233733474  4.7490487198333700 23.4805567456503930
 -5.6827608201410058  4.7431046821795340 29.7289691079611629
 -8.6557626596998354  4.7408486343209901 27.6729960624988749
 -5.6883649541850740  4.7337145777398746 33.8874270805449527
 -8.6507872048166004  4.7428999917981800 31.8354567920524687
 -5.6847283596683038  4.7468219770816438 38.0807331002038438
 -8.6536648950474113  4.7323391973314806 35.9642465909339251
 -5.7044127513418470  4.7478546035355329 42.0724642493513272
 -8.6589976228286485  4.7384577295271244 40.0554998453538929
 -8.6814992239806354  1.7726319000609958 21.4923019160914848
 -11.6572510226967925  1.7681307603564869 19.4881661868373577
 -8.6818094661904937  1.7721020031599188 25.5847820933891548
 -11.6512590636220814  1.7742369113671830 23.4534963968753765
 -8.6827776926680045  1.7703021886056809 29.7417318417379164
 -11.6515079343468457  1.7723202326787688 27.6933963736518507
 -8.6834403087458512  1.7691906432319140 33.8703511762058298
 -11.6530983376362602  1.7694708677487718 31.8198445667209739
 -8.6815721749912207  1.7712561633595110 38.1037384302855600
 -11.6534873206194494  1.7690809940328509 35.9814119364776843
 -8.6815052809631990  1.7717301222451438 42.0687105247552182
 -11.6504319292090042  1.7716019458052970 40.0691208639453151
 -8.7069117396942630  7.7165408430175102 21.5014329862102151
 -11.6599758631911339  7.7021518574238179 19.4904979716546798
 -8.7043948852923734  7.7224116624409405 25.5941309791474083
 -11.6750644302709699  7.7027102577722548 23.4817959447718749
 -8.7096183201676389  7.7039831148434237 29.7279992847030599
 -11.6736650000788664  7.7112843619579614 27.6743734570502653
 -8.7016879485259047  7.7093674160497292 33.8917121911215418
 -11.6792540807397991  7.7035771188650903 31.8373301468522953
 -8.7061666417656181  7.7037127774598693 38.0807460779472535
 -11.6745249134564091  7.7206010700206695 35.9699862610227683
 -8.6883635666911072  7.7050022021598172 42.0740854150290744
 -11.6707490974139390  7.7103535462551109 40.0609606693341647
 -11.6279470738323418  4.7352615132720652 21.5021344858544161
 -14.6097923751544272  4.7501594635476803 19.4920044421405976
 -11.6269314603735943  4.7314807091263074 25.5945360951919341
 -14.5941586796438330  4.7518020637750737 23.4786448083701274
 -11.6207069309830811  4.7444047956722422 29.7258533972914449
 -14.6009832066012741  4.7444085367497077 27.6757315603614344
 -11.6243417440343944  4.7367713052494151 33.8907378081157447
 -14.5872538085941468  4.7449044967337723 31.8346837394445572
 -11.6251233620049685  4.7470210558467985 38.0818148126551961
 -14.5921686045784664  4.7320245905312452 35.9683240576158454
 -11.6429444298806253  4.7463579944025867 42.0724470626100384
 -14.5967509791079522  4.7368398025963518 40.0603408943985073
 -14.6209382919514645  1.7723205889718610 21.4934800847439220
 -17.5931716963841183  1.7673781802729098 19.4883759352309731
 -14.6188905864784662  1.7747655612424380 25.5844741350453546
 -17.5875476990001722  1.7744668985580689 23.4550958160641549
 -14.6193510062266032  1.7700495768034530 29.7428661666625800
 -17.5882150359614897  1.7731895878232489 27.6949719418527280
 -14.6231971010814696  1.7704088093134620 33.8694090621836779
 -17.5918961671147613  1.7704654599150900 31.8217382650104952
 -14.6223268552042605  1.7730402119444280 38.1068218719716327
 -17.5913866679932021  1.7700740719535279 35.9796487171219894
 -14.6188832824700796  1.7686522843699020 42.0684386936430883
 -17.5886098087074245  1.7719985000166929 40.0678557093370102
 -14.6444055364560448  7.7174232028598491 21.5025848486259932
 -17.6001389187249089  7.7029306250496568 19.4907210485415341
 -14.6456966535481801  7.7224913830202757 25.5929247505092050
 -17.6152650747259507  7.7025811905996768 23.4828355672445781
 -14.6498097010022281  7.7064168638816035 29.7282462125778153
 -17.6138320639099248  7.7102728458697731 27.6747592818545698
 -14.6358499595111216  7.7094469584825180 33.8929278900049411
 -17.6173397694006653  7.7039392017198356 31.8368478658469201
 -14.6434510272625769  7.7053936791946525 38.0832714766663827
 -17.6116125360933111  7.7198218570284665 35.9689943405258674
 -14.6301069602344445  7.7040935657019443 42.0723614796534520
 -17.6106865303472020  7.7128333461754313 40.0596895519788774
 -17.5687144915234192  4.7368388227903493 21.5037844130175735
 -20.5475365568866124  4.7471112870723466 19.4898634652264988
 -17.5648145964116580  4.7325347131657169 25.5941976216136098
 -20.5322083827024073  4.7509317288245905 23.4791874183449139
 -17.5604547269181310  4.7415964044478249 29.7300816863968578
 -20.5344118773298803  4.7414032045186882 27.6745537424588193
 -17.5631605948053249  4.7369410789077531 33.8906003141854910
 -20.5272717637662012  4.7443636438201162 31.8338023051416172
 -17.5640581861773448  4.7465341813365800 38.0805366803034673
 -20.5314126020814243  4.7287079472110909 35.9654096773440131
 -17.5800971650800903  4.7471399686662537 42.0732520334517659
 -20.5351164469193108  4.7371148608633762 40.0590055898257731
 -20.5838277695782779  7.7167690487429361 21.5023235400085255
 -23.5363926373799828  7.7025216005800408 19.4906400253326311
 -20.5832446068599495  7.7218618131267114 25.5943887802666517
 -23.5505128889090400  7.7013018311795784 23.4829969121627400
 -20.5881390050647468  7.7053581389587249 29.7291872743505081
 -23.5511996438438658  7.7109509606971223 27.6744997269862196
 -20.5766128344652728  7.7083555436684481 33.8915192787193860
 -23.5535975854262958  7.7048646730263055 31.8376977326658590
 -20.5819685431509427  7.7024194335359093 38.0823353253911989
 -23.5500265488384599  7.7195759257217116 35.9692724851347947
 -20.5662480011991775  7.7050650878905547 42.0739009206226484
 -23.5499829029346870  7.7093969883763647 40.0593661606428952
 -4.5226776160370816  4.0210976680378785  1.2971099150594485
 -4.5227214400873983  4.0208071110213526  5.7978383409534979
 -4.5227695396548180  4.0208096050729960 10.3124386651676652
 -4.5227563568104143  4.0208169090813826 14.8280221307458966
 -8.9763633562087843  4.0211062190720863  1.2973850952784174
 -8.9763942646345161  4.0207972238880494  5.7979793811660274
 -8.9764250839869728  4.0208120100513680 10.3121717651960090
 -8.9764253512067942  4.0208163746417442 14.8300207064385283
 -13.4300071428689041  4.0211023889213475  1.2971303396694820
 -13.4300332413378971  4.0207907215391208  5.7978836063054660
 -13.4300898919395255  4.0208113865384565 10.3124775823300254
 -13.4300838349569620  4.0208160183486523 14.8280295829684761
 -17.8836951098724377  4.0210976680378785  1.2974115920698113
 -17.8837094506693894  4.0207722833716097  5.7980152622377092
 -17.8837637853659217  4.0208150385426498 10.3121811494762916
 -17.8837538982326159  4.0208128117108242 14.8300198784137969
 -8.9763434037956333  8.4747661279946200  1.2971292356365067
 -8.9763687896784372  8.4744549950520298  5.7978830542889783
 -8.9764273998920725  8.4744737004393613 10.3124773063217852
 -8.9764195614440485  8.4744799355684712 14.8280293069602322
 -13.4300310145060688  8.4747614071111510  1.2974124200945427
 -13.4300408125660997  8.4744380711301606  5.7980163662706845
 -13.4300968396548175  8.4744857253312151 10.3121836335504860
 -13.4300853492026011  8.4744765507840967 14.8300226384962350
 -17.8836687441836304  8.4747611398913314  1.2971143311913478
 -17.8837139043330389  8.4744688904826191  5.7978427570853954
 -17.8837533637929766  8.4744798464951980 10.3124541216293153
 -17.8837514932542447  8.4744760163444592 14.8280304109932075
 -22.3373543952820626  8.4747694237057214  1.2973842672536859
 -22.3373889557119831  8.4744573109571277  5.7979774491083207
 -22.3374247631677285  8.4744745911720916 10.3121695571300585
 -22.3374169247197045  8.4744758381979128 14.8300201544220407
