Cl Na  O                                
   1.00000000000000     
    -8.9073273000000004    8.9073273000000004    0.0000000000000000
   -17.8146546000000008    0.0000000000000000    0.0000000000000000
     0.0000000000000000    0.0000000000000000   44.3302634557565227
   Cl   Na   O 
    32   204    32
Direct
  0.2023737002372030  0.0281965251773499  0.0846978860295877
  0.2023766602372064  0.0281940651773525  0.1872745665394504
  0.2023777902372075  0.0281944751773509  0.2890802715094338
  0.2023773802372020  0.0281948751773555  0.3897776228701133
  0.2023969002372041  0.2781753151773501  0.0847270245566278
  0.2023772802372079  0.2781948451773530  0.1872756312164015
  0.2023773802372020  0.2781950451773554  0.2890565684383972
  0.2023774602372015  0.2781948551773539  0.3898428794730933
  0.2023753502372045  0.5281942351773523  0.0846984588382398
  0.2023773602372074  0.5281945551773504  0.1872745852179918
  0.2023777802372067  0.5281946051773545  0.2890802216999830
  0.2023773702372011  0.5281949151773517  0.3897776415486547
  0.2023968302372054  0.7781743251773534  0.0847270370089959
  0.2023766102372022  0.7781960451773529  0.1872754008477031
  0.2023838402372036  0.7781898251773498  0.2890513446725436
  0.2023773802372020  0.7781948951773501  0.3898428358898229
  0.7023755102372036  0.0281943951773513  0.0846983467669844
  0.7023776302372013  0.0281947351773510  0.1872745416347286
  0.7023780102372044  0.0281945551773504  0.2890802777356143
  0.7023773402372058  0.0281948851773564  0.3897776228701133
  0.7023966802372072  0.2781744151773538  0.0847270556875372
  0.7023766402372047  0.2781960251773512  0.1872754506571539
  0.7023837302372016  0.2781898751773539  0.2890513384463631
  0.7023773602372074  0.2781949251773526  0.3898428421160034
  0.7023741202372022  0.5281964151773550  0.0846980167793916
  0.7023770002372061  0.5281941751773545  0.1872746225750817
  0.7023777902372075  0.5281946451773507  0.2890802279261635
  0.7023772502372054  0.5281949251773526  0.3897776290962938
  0.7023976002372052  0.7781746351773506  0.0847270805922591
  0.7023759302372028  0.7781967251773523  0.1872758429065513
  0.7023838502372044  0.7781897551773511  0.2890513758034459
  0.7023773202372041  0.7781949751773496  0.3898428421160034
  0.4523745302372078  0.0281932651773502  0.0854547219124342
  0.2021610202372059  0.1531691251773495  0.0338818389599851
  0.4523827602372066  0.0281907651773494  0.1873495795680427
  0.2023562102372054  0.1544391651773509  0.1364096688537870
  0.4523786202372051  0.0281943451773543  0.2891405596199732
  0.2021868302372027  0.1529805751773523  0.2382871679167877
  0.4523802002372079  0.0281926651773503  0.3901770759640186
  0.2023539402372023  0.1523045551773521  0.3402777219742390
  0.4522413202372064  0.1531680751773550  0.0338461069072764
  0.4523837702372049  0.2781895251773534  0.0854810773365742
  0.2026315502372071  0.4031961151773515  0.0338852010977249
  0.4550147902372075  0.1518352451773524  0.1362794420521567
  0.4523791502372063  0.2781933251773552  0.1873201546366730
  0.2023963402372075  0.4019501651773538  0.1364102665671609
  0.4519428002372052  0.1533835251773539  0.2382521082916185
  0.4523795502372039  0.2781933951773539  0.2891797534293232
  0.2025741402372034  0.4034013251773558  0.2382856425024471
  0.4506734302372024  0.1540315251773521  0.3401716901119443
  0.4523793502372015  0.2781930851773495  0.3902418656034214
  0.2024030802372039  0.4040847751773526  0.3402775663197133
  0.4525266902372067  0.4032037951773546  0.0338369730997599
  0.4523832502372045  0.5281899751773551  0.0854556682919494
  0.2021627302372053  0.6531690451773500  0.0338815151985798
  0.4497343302372059  0.4045525951773499  0.1362792988499919
  0.4523675302372041  0.5281998751773500  0.1873512357321871
  0.2023566202372038  0.6544388951773499  0.1364098680915760
  0.4528139002372029  0.4030062051773555  0.2382527558144432
  0.4523784102372019  0.5281945551773504  0.2891409331908363
  0.2021856602372054  0.6529804051773525  0.2382877780825225
  0.4540839602372060  0.4023570951773507  0.3401718395402895
  0.4523802502372050  0.5281926051773524  0.3901772253923639
  0.2023539202372078  0.6523044751773526  0.3402778091407725
  0.4522422602372060  0.6531679851773546  0.0338464617995911
  0.4523687002372014  0.7781979451773537  0.0854822914418705
  0.2026314402372051  0.9031966451773528  0.0338853941093333
  0.4550253002372031  0.6518283951773540  0.1362787073627985
  0.4523854602372026  0.7781916651773528  0.1873209142307530
  0.2023925402372058  0.9019457151773551  0.1364183045668241
  0.4519439002372039  0.6533831851773542  0.2382527122311799
  0.4523793402372078  0.7781943051773510  0.2891796973936920
  0.2025744002372036  0.9034014151773562  0.2382859849424008
  0.4506735802372077  0.6540314751773550  0.3401717710522973
  0.4523793502372015  0.7781931351773537  0.3902418593772410
  0.2024032702372054  0.9040849751773550  0.3402776285815250
  0.4525259102372061  0.9032040251773523  0.0338370229092106
  0.4497356402372077  0.9045522251773548  0.1362796599684941
  0.4528140902372044  0.9030067851773538  0.2382520024465435
  0.4540838802372065  0.9023572251773544  0.3401717025643052
  0.9523831002372063  0.0281901351773541  0.0854556247086791
  0.7021628202372057  0.1531689351773551  0.0338815027462118
  0.9523674902372079  0.0281998751773500  0.1873512170536458
  0.7023571202372025  0.1544386151773551  0.1364098680915760
  0.9523785502372064  0.0281943851773505  0.2891409269646559
  0.7021859002372040  0.1529798651773504  0.2382879026061460
  0.9523803002372020  0.0281925951773516  0.3901772191661834
  0.7023539302372015  0.1523044151773547  0.3402778153669530
  0.9522424502372075  0.1531678451773502  0.0338464867043129
  0.9523696102372057  0.2781969951773533  0.0854823038942314
  0.7026315302372055  0.4031965051773554  0.0338854127878747
  0.9550253902372035  0.1518280451773535  0.1362787384937079
  0.9523868802372064  0.2781903751773527  0.1873209204569335
  0.7023927902372051  0.4019451751773531  0.1364184353166209
  0.9519448702372060  0.1533825351773501  0.2382528741118861
  0.9523803402372053  0.2781933651773514  0.2891798156911278
  0.7025748302372037  0.4034012151773538  0.2382860160733031
  0.9506736202372039  0.1540314551773534  0.3401717585999364
  0.9523794902372060  0.2781929951773563  0.3902418656034214
  0.7024033402372041  0.4040848651773530  0.3402776908433367
  0.9525260802372060  0.4032039551773536  0.0338370291353911
  0.9523747202372022  0.5281930851773495  0.0854549086978693
  0.7021611202372071  0.6531691651773528  0.0338818327338046
  0.9497333102372068  0.4045532451773539  0.1362792179096388
  0.9523826502372046  0.5281908151773536  0.1873498410676433
  0.7023559902372014  0.6544394351773519  0.1364095007469004
  0.9528142702372051  0.4030064851773503  0.2382525628028347
  0.9523783902372074  0.5281945351773558  0.2891407277268598
  0.7021867502372032  0.6529796551773543  0.2382879648679506
  0.9540842402372078  0.4023570251773521  0.3401717585999364
  0.9523804202372048  0.5281925451773546  0.3901771755829131
  0.7023540102372081  0.6523044251773555  0.3402778153669530
  0.9522412202372053  0.6531680751773550  0.0338461442643592
  0.9523828202372044  0.7781904651773530  0.0854810213009500
  0.7026316002372042  0.9031961651773557  0.0338851699668226
  0.9550144902372040  0.6518356451773499  0.1362792801714505
  0.9523777002372071  0.7781946251773562  0.1873201546366730
  0.7023963602372021  0.9019492051773526  0.1364106339118436
  0.9519444202372043  0.6533828251773528  0.2382529114689689
  0.9523785702372010  0.7781943251773527  0.2891797036198724
  0.7025701002372031  0.9034099551773522  0.2382868815124581
  0.9506733602372037  0.6540315251773521  0.3401717710522973
  0.9523794402372019  0.7781930551773542  0.3902418718296019
  0.7024031102372064  0.9040850051773504  0.3402775663197133
  0.9525266202372080  0.9032038751773541  0.0338369295164895
  0.9497333402372021  0.9045532751773493  0.1362791494216538
  0.9528138202372034  0.9030064651773557  0.2382527495882627
  0.9540836902372050  0.9023572351773552  0.3401718021832068
  0.1965082067393453  0.0558464926544460  0.5018902455722554
  0.1960996567393494  0.2229497626544443  0.4566317292339122
  0.1965918967393492  0.0557712526544449  0.5941746021808356
  0.1966755867393459  0.2224301526544465  0.5461225419170717
  0.1961750767393511  0.0560445126544451  0.6880174402549741
  0.1963429667393513  0.2226066226544461  0.6417593838547901
  0.1960902267393507  0.0561789726544433  0.7810879924183780
  0.1961337867393453  0.2227716026544471  0.7348800993535534
  0.1962189267393484  0.0560079226544445  0.8766388445881645
  0.1963296867393467  0.2227541326544440  0.8286915576503944
  0.1960948967393463  0.0561337126544430  0.9660198596996068
  0.1963276867393446  0.2225650526544456  0.9209174668523090
  0.5291307967393450  0.0549366126544442  0.5020961526131487
  0.5301959267393457  0.2217862926544427  0.4566978435604483
  0.5286353067393463  0.0550952526544464  0.5944136534191813
  0.5306539267393475  0.2205617926544434  0.5467311244510711
  0.5299866067393495  0.0541025526544416  0.6876825169133980
  0.5297333267393469  0.2211143726544478  0.6413039735619819
  0.5289324067393508  0.0549442326544423  0.7814888164571414
  0.5299636267393453  0.2207199326544469  0.7352005671093664
  0.5304039367393472  0.0540043326544435  0.8760812166093288
  0.5287779967393504  0.2214742826544480  0.8283376133848108
  0.5305198667393469  0.0550513226544425  0.9661265003043269
  0.5294649067393493  0.2214301726544434  0.9206279120541012
  0.1965001767393488  0.3891756326544424  0.5018801654319915
  0.1959948467393460  0.5564678426544418  0.4566709658238253
  0.1964406867393507  0.3892227926544436  0.5941981409699011
  0.1966803667393506  0.5557887326544417  0.5461206983749420
  0.1962386267393512  0.3893781726544461  0.6879704180622213
  0.1964651867393457  0.5559102926544455  0.6417641628223834
  0.1961138367393502  0.3894777626544439  0.7811036190094356
  0.1961452967393456  0.5561595126544461  0.7348483872639449
  0.1963457267393451  0.3892569526544420  0.8766001697643162
  0.1961015267393478  0.5562032326544468  0.8287248284430078
  0.1963989367393495  0.3892265926544454  0.9660418239612696
  0.1963845467393455  0.5558902126544467  0.9209351743514489
  0.8638057267393506  0.0569493526544420  0.5020861436826749
  0.8621903167393512  0.2235230626544435  0.4567235661161604
  0.8644648267393507  0.0564785226544444  0.5944090326955447
  0.8622530067393512  0.2243386926544417  0.5467590782466232
  0.8623959067393514  0.0578061926544464  0.6876606396859088
  0.8632155967393444  0.2237788426544469  0.6413350447635509
  0.8630003867393512  0.0570587926544448  0.7815854797801762
  0.8623503267393460  0.2245252126544415  0.7352428261589168
  0.8623655567393484  0.0576276126544428  0.8760815093606595
  0.8642615567393506  0.2233041326544480  0.8284670885929799
  0.8625103167393462  0.0565558826544432  0.9661630704835105
  0.8631110967393454  0.2236674126544429  0.9207510970648514
  0.5291060767393461  0.3882672926544473  0.5021019680786836
  0.5307786267393482  0.5548126126544446  0.4567575490065963
  0.5286816167393482  0.3884225126544436  0.5944181712842393
  0.5309630367393510  0.5538428326544462  0.5466879950597416
  0.5301325667393471  0.3873476326544463  0.6876122328585126
  0.5301329867393463  0.5546409426544443  0.6413656807942303
  0.5292755767393444  0.3879801626544435  0.7815634996941156
  0.5301886667393489  0.5538424226544478  0.7351831286249677
  0.5304262867393490  0.3874486826544441  0.8761056178279816
  0.5287426767393484  0.5548413026544452  0.8284295926866250
  0.5303518467393502  0.3884862626544461  0.9661261126066236
  0.5292832667393483  0.5548282326544438  0.9207371162109723
  0.1964652267393490  0.7225949726544414  0.5019067425050920
  0.1959103567393470  0.8897144526544452  0.4566756973182322
  0.1967397167393514  0.7223427826544437  0.5941911940600519
  0.1967061867393483  0.8890008426544469  0.5461567779978438
  0.1962102667393495  0.7226333526544408  0.6879960061105734
  0.1965627867393493  0.8891100026544478  0.6417997044158241
  0.1962505967393469  0.7228290826544423  0.7810823668455953
  0.1962569567393473  0.8894695526544467  0.7348911052209743
  0.1965460167393474  0.7226325226544432  0.8766697258969813
  0.1962130167393497  0.8894629226544453  0.8286850538236337
  0.1960533967393445  0.7226855326544452  0.9660356920078144
  0.1964290667393485  0.8891990226544451  0.9209066350532424
  0.8639047867393472  0.3901924926544424  0.5021121273409221
  0.8622777467393448  0.5569218526544475  0.4567285982740970
  0.8644737767393451  0.3899804726544431  0.5943818226466036
  0.8622385167393460  0.5577905526544455  0.5467825300015079
  0.8626691367393491  0.3911136726544413  0.6876662098733064
  0.8631020367393489  0.5572783526544427  0.6413437481813560
  0.8630093167393511  0.3901599726544447  0.7816129034584591
  0.8623909767393485  0.5578307826544417  0.7352319468866568
  0.8625542667393447  0.3908141726544443  0.8761384771862950
  0.8641740767393458  0.5566177426544456  0.8284447128970172
  0.8624083067393471  0.3901381026544470  0.9661241820303132
  0.8633894967393445  0.5569580526544442  0.9207224232592779
  0.5292831567393463  0.7216551826544446  0.5021391870580985
  0.5304364167393487  0.8882904426544442  0.4567092529499703
  0.5287999467393476  0.7216778726544462  0.5944105360131644
  0.5308653267393453  0.8872155626544469  0.5467002352300554
  0.5298172767393510  0.7209244726544455  0.6877076144054683
  0.5297955867393469  0.8878741226544449  0.6413391116333287
  0.5292946367393512  0.7213376826544433  0.7815603981124966
  0.5301279467393485  0.8873071426544428  0.7351632452713801
  0.5303716267393455  0.7208495726544442  0.8760767857784444
  0.5283703267393491  0.8884183926544438  0.8283638502334014
  0.5304396367393451  0.7217158926544442  0.9661442711010437
  0.5293141467393454  0.8881543926544424  0.9207069944731643
  0.8638313467393459  0.7236301326544421  0.5021062327534054
  0.8622318267393467  0.8901678726544446  0.4567267705563580
  0.8644030967393448  0.7233115226544413  0.5944148481610796
  0.8620948867393494  0.8910289626544454  0.5467861696125951
  0.8625502767393485  0.7245126726544413  0.6876874383005571
  0.8631781667393454  0.8905258726544432  0.6413378931548337
  0.8628867867393453  0.7236974126544453  0.7815811280712737
  0.8624948767393477  0.8910021226544416  0.7352511181424290
  0.8622203567393498  0.7243312626544451  0.8761173595298217
  0.8641464667393493  0.8899758726544462  0.8284509872700383
  0.8625173767393477  0.7233003026544438  0.9661589086673530
  0.8630037067393488  0.8905448026544462  0.9207151282127128
  0.4524110602372033  0.0281732151773539  0.0348996327667592
  0.4523784402372044  0.0281919851773509  0.1364268531133277
  0.4523787202372063  0.0281945451773495  0.2382669950903704
  0.4523795402372031  0.0281933951773539  0.3401293147241162
  0.4524120202372046  0.2781739751773529  0.0349058402692037
  0.4523773302372049  0.2781930551773542  0.1364300346918128
  0.4523789902372073  0.2781939551773505  0.2382609743733539
  0.4523794802372052  0.2781937251773527  0.3401743985006789
  0.4524115902372046  0.5281730751773495  0.0349000935041488
  0.4523766002372014  0.5281920351773550  0.1364278742070084
  0.4523789202372015  0.5281940551773516  0.2382678729818934
  0.4523794402372019  0.5281934551773517  0.3401294828310029
  0.4524110602372033  0.7781747051773493  0.0349064379825776
  0.4523745302372078  0.7781937751773498  0.1364308440953437
  0.4523793302372070  0.7781944251773538  0.2382611860635038
  0.4523790802372076  0.7781939951773538  0.3401743798221375
  0.9524116002372054  0.0281730651773557  0.0349000685994270
  0.9523766702372072  0.0281919551773555  0.1364278617546475
  0.9523787702372033  0.0281941951773561  0.2382678667557130
  0.9523794702372044  0.0281934051773547  0.3401294766048224
  0.9524110702372042  0.2781746751773539  0.0349064566611261
  0.9523747702372063  0.2781933751773522  0.1364308690000655
  0.9523801202372013  0.2781938451773556  0.2382612420991350
  0.9523790902372014  0.2781937151773519  0.3401744420839421
  0.9524110402372017  0.5281732351773556  0.0348997323856537
  0.9523782302372013  0.5281921751773524  0.1364269527322222
  0.9523794602372035  0.5281937751773498  0.2382673437565117
  0.9523790302372035  0.5281938851773518  0.3401295015095442
  0.9524119702372076  0.7781740051773554  0.0349058215906624
  0.9523769302372074  0.7781934651773526  0.1364299911085425
  0.9523788702372045  0.7781945051773533  0.2382609245639031
  0.9523790102372018  0.7781939951773538  0.3401743860483180
 
  0.00000000E+00  0.00000000E+00  0.00000000E+00
  0.00000000E+00  0.00000000E+00  0.00000000E+00
  0.00000000E+00  0.00000000E+00  0.00000000E+00
  0.00000000E+00  0.00000000E+00  0.00000000E+00
  0.00000000E+00  0.00000000E+00  0.00000000E+00
  0.00000000E+00  0.00000000E+00  0.00000000E+00
  0.00000000E+00  0.00000000E+00  0.00000000E+00
  0.00000000E+00  0.00000000E+00  0.00000000E+00
  0.00000000E+00  0.00000000E+00  0.00000000E+00
  0.00000000E+00  0.00000000E+00  0.00000000E+00
  0.00000000E+00  0.00000000E+00  0.00000000E+00
  0.00000000E+00  0.00000000E+00  0.00000000E+00
  0.00000000E+00  0.00000000E+00  0.00000000E+00
  0.00000000E+00  0.00000000E+00  0.00000000E+00
  0.00000000E+00  0.00000000E+00  0.00000000E+00
  0.00000000E+00  0.00000000E+00  0.00000000E+00
  0.00000000E+00  0.00000000E+00  0.00000000E+00
  0.00000000E+00  0.00000000E+00  0.00000000E+00
  0.00000000E+00  0.00000000E+00  0.00000000E+00
  0.00000000E+00  0.00000000E+00  0.00000000E+00
  0.00000000E+00  0.00000000E+00  0.00000000E+00
  0.00000000E+00  0.00000000E+00  0.00000000E+00
  0.00000000E+00  0.00000000E+00  0.00000000E+00
  0.00000000E+00  0.00000000E+00  0.00000000E+00
  0.00000000E+00  0.00000000E+00  0.00000000E+00
  0.00000000E+00  0.00000000E+00  0.00000000E+00
  0.00000000E+00  0.00000000E+00  0.00000000E+00
  0.00000000E+00  0.00000000E+00  0.00000000E+00
  0.00000000E+00  0.00000000E+00  0.00000000E+00
  0.00000000E+00  0.00000000E+00  0.00000000E+00
  0.00000000E+00  0.00000000E+00  0.00000000E+00
  0.00000000E+00  0.00000000E+00  0.00000000E+00
  0.00000000E+00  0.00000000E+00  0.00000000E+00
  0.00000000E+00  0.00000000E+00  0.00000000E+00
  0.00000000E+00  0.00000000E+00  0.00000000E+00
  0.00000000E+00  0.00000000E+00  0.00000000E+00
  0.00000000E+00  0.00000000E+00  0.00000000E+00
  0.00000000E+00  0.00000000E+00  0.00000000E+00
  0.00000000E+00  0.00000000E+00  0.00000000E+00
  0.00000000E+00  0.00000000E+00  0.00000000E+00
  0.00000000E+00  0.00000000E+00  0.00000000E+00
  0.00000000E+00  0.00000000E+00  0.00000000E+00
  0.00000000E+00  0.00000000E+00  0.00000000E+00
  0.00000000E+00  0.00000000E+00  0.00000000E+00
  0.00000000E+00  0.00000000E+00  0.00000000E+00
  0.00000000E+00  0.00000000E+00  0.00000000E+00
  0.00000000E+00  0.00000000E+00  0.00000000E+00
  0.00000000E+00  0.00000000E+00  0.00000000E+00
  0.00000000E+00  0.00000000E+00  0.00000000E+00
  0.00000000E+00  0.00000000E+00  0.00000000E+00
  0.00000000E+00  0.00000000E+00  0.00000000E+00
  0.00000000E+00  0.00000000E+00  0.00000000E+00
  0.00000000E+00  0.00000000E+00  0.00000000E+00
  0.00000000E+00  0.00000000E+00  0.00000000E+00
  0.00000000E+00  0.00000000E+00  0.00000000E+00
  0.00000000E+00  0.00000000E+00  0.00000000E+00
  0.00000000E+00  0.00000000E+00  0.00000000E+00
  0.00000000E+00  0.00000000E+00  0.00000000E+00
  0.00000000E+00  0.00000000E+00  0.00000000E+00
  0.00000000E+00  0.00000000E+00  0.00000000E+00
  0.00000000E+00  0.00000000E+00  0.00000000E+00
  0.00000000E+00  0.00000000E+00  0.00000000E+00
  0.00000000E+00  0.00000000E+00  0.00000000E+00
  0.00000000E+00  0.00000000E+00  0.00000000E+00
  0.00000000E+00  0.00000000E+00  0.00000000E+00
  0.00000000E+00  0.00000000E+00  0.00000000E+00
  0.00000000E+00  0.00000000E+00  0.00000000E+00
  0.00000000E+00  0.00000000E+00  0.00000000E+00
  0.00000000E+00  0.00000000E+00  0.00000000E+00
  0.00000000E+00  0.00000000E+00  0.00000000E+00
  0.00000000E+00  0.00000000E+00  0.00000000E+00
  0.00000000E+00  0.00000000E+00  0.00000000E+00
  0.00000000E+00  0.00000000E+00  0.00000000E+00
  0.00000000E+00  0.00000000E+00  0.00000000E+00
  0.00000000E+00  0.00000000E+00  0.00000000E+00
  0.00000000E+00  0.00000000E+00  0.00000000E+00
  0.00000000E+00  0.00000000E+00  0.00000000E+00
  0.00000000E+00  0.00000000E+00  0.00000000E+00
  0.00000000E+00  0.00000000E+00  0.00000000E+00
  0.00000000E+00  0.00000000E+00  0.00000000E+00
  0.00000000E+00  0.00000000E+00  0.00000000E+00
  0.00000000E+00  0.00000000E+00  0.00000000E+00
  0.00000000E+00  0.00000000E+00  0.00000000E+00
  0.00000000E+00  0.00000000E+00  0.00000000E+00
  0.00000000E+00  0.00000000E+00  0.00000000E+00
  0.00000000E+00  0.00000000E+00  0.00000000E+00
  0.00000000E+00  0.00000000E+00  0.00000000E+00
  0.00000000E+00  0.00000000E+00  0.00000000E+00
  0.00000000E+00  0.00000000E+00  0.00000000E+00
  0.00000000E+00  0.00000000E+00  0.00000000E+00
  0.00000000E+00  0.00000000E+00  0.00000000E+00
  0.00000000E+00  0.00000000E+00  0.00000000E+00
  0.00000000E+00  0.00000000E+00  0.00000000E+00
  0.00000000E+00  0.00000000E+00  0.00000000E+00
  0.00000000E+00  0.00000000E+00  0.00000000E+00
  0.00000000E+00  0.00000000E+00  0.00000000E+00
  0.00000000E+00  0.00000000E+00  0.00000000E+00
  0.00000000E+00  0.00000000E+00  0.00000000E+00
  0.00000000E+00  0.00000000E+00  0.00000000E+00
  0.00000000E+00  0.00000000E+00  0.00000000E+00
  0.00000000E+00  0.00000000E+00  0.00000000E+00
  0.00000000E+00  0.00000000E+00  0.00000000E+00
  0.00000000E+00  0.00000000E+00  0.00000000E+00
  0.00000000E+00  0.00000000E+00  0.00000000E+00
  0.00000000E+00  0.00000000E+00  0.00000000E+00
  0.00000000E+00  0.00000000E+00  0.00000000E+00
  0.00000000E+00  0.00000000E+00  0.00000000E+00
  0.00000000E+00  0.00000000E+00  0.00000000E+00
  0.00000000E+00  0.00000000E+00  0.00000000E+00
  0.00000000E+00  0.00000000E+00  0.00000000E+00
  0.00000000E+00  0.00000000E+00  0.00000000E+00
  0.00000000E+00  0.00000000E+00  0.00000000E+00
  0.00000000E+00  0.00000000E+00  0.00000000E+00
  0.00000000E+00  0.00000000E+00  0.00000000E+00
  0.00000000E+00  0.00000000E+00  0.00000000E+00
  0.00000000E+00  0.00000000E+00  0.00000000E+00
  0.00000000E+00  0.00000000E+00  0.00000000E+00
  0.00000000E+00  0.00000000E+00  0.00000000E+00
  0.00000000E+00  0.00000000E+00  0.00000000E+00
  0.00000000E+00  0.00000000E+00  0.00000000E+00
  0.00000000E+00  0.00000000E+00  0.00000000E+00
  0.00000000E+00  0.00000000E+00  0.00000000E+00
  0.00000000E+00  0.00000000E+00  0.00000000E+00
  0.00000000E+00  0.00000000E+00  0.00000000E+00
  0.00000000E+00  0.00000000E+00  0.00000000E+00
  0.00000000E+00  0.00000000E+00  0.00000000E+00
  0.00000000E+00  0.00000000E+00  0.00000000E+00
  0.00000000E+00  0.00000000E+00  0.00000000E+00
  0.00000000E+00  0.00000000E+00  0.00000000E+00
  0.00000000E+00  0.00000000E+00  0.00000000E+00
  0.00000000E+00  0.00000000E+00  0.00000000E+00
  0.00000000E+00  0.00000000E+00  0.00000000E+00
  0.00000000E+00  0.00000000E+00  0.00000000E+00
  0.00000000E+00  0.00000000E+00  0.00000000E+00
  0.00000000E+00  0.00000000E+00  0.00000000E+00
  0.00000000E+00  0.00000000E+00  0.00000000E+00
  0.00000000E+00  0.00000000E+00  0.00000000E+00
  0.00000000E+00  0.00000000E+00  0.00000000E+00
  0.00000000E+00  0.00000000E+00  0.00000000E+00
  0.00000000E+00  0.00000000E+00  0.00000000E+00
  0.00000000E+00  0.00000000E+00  0.00000000E+00
  0.00000000E+00  0.00000000E+00  0.00000000E+00
  0.00000000E+00  0.00000000E+00  0.00000000E+00
  0.00000000E+00  0.00000000E+00  0.00000000E+00
  0.00000000E+00  0.00000000E+00  0.00000000E+00
  0.00000000E+00  0.00000000E+00  0.00000000E+00
  0.00000000E+00  0.00000000E+00  0.00000000E+00
  0.00000000E+00  0.00000000E+00  0.00000000E+00
  0.00000000E+00  0.00000000E+00  0.00000000E+00
  0.00000000E+00  0.00000000E+00  0.00000000E+00
  0.00000000E+00  0.00000000E+00  0.00000000E+00
  0.00000000E+00  0.00000000E+00  0.00000000E+00
  0.00000000E+00  0.00000000E+00  0.00000000E+00
  0.00000000E+00  0.00000000E+00  0.00000000E+00
  0.00000000E+00  0.00000000E+00  0.00000000E+00
  0.00000000E+00  0.00000000E+00  0.00000000E+00
  0.00000000E+00  0.00000000E+00  0.00000000E+00
  0.00000000E+00  0.00000000E+00  0.00000000E+00
  0.00000000E+00  0.00000000E+00  0.00000000E+00
  0.00000000E+00  0.00000000E+00  0.00000000E+00
  0.00000000E+00  0.00000000E+00  0.00000000E+00
  0.00000000E+00  0.00000000E+00  0.00000000E+00
  0.00000000E+00  0.00000000E+00  0.00000000E+00
  0.00000000E+00  0.00000000E+00  0.00000000E+00
  0.00000000E+00  0.00000000E+00  0.00000000E+00
  0.00000000E+00  0.00000000E+00  0.00000000E+00
  0.00000000E+00  0.00000000E+00  0.00000000E+00
  0.00000000E+00  0.00000000E+00  0.00000000E+00
  0.00000000E+00  0.00000000E+00  0.00000000E+00
  0.00000000E+00  0.00000000E+00  0.00000000E+00
  0.00000000E+00  0.00000000E+00  0.00000000E+00
  0.00000000E+00  0.00000000E+00  0.00000000E+00
  0.00000000E+00  0.00000000E+00  0.00000000E+00
  0.00000000E+00  0.00000000E+00  0.00000000E+00
  0.00000000E+00  0.00000000E+00  0.00000000E+00
  0.00000000E+00  0.00000000E+00  0.00000000E+00
  0.00000000E+00  0.00000000E+00  0.00000000E+00
  0.00000000E+00  0.00000000E+00  0.00000000E+00
  0.00000000E+00  0.00000000E+00  0.00000000E+00
  0.00000000E+00  0.00000000E+00  0.00000000E+00
  0.00000000E+00  0.00000000E+00  0.00000000E+00
  0.00000000E+00  0.00000000E+00  0.00000000E+00
  0.00000000E+00  0.00000000E+00  0.00000000E+00
  0.00000000E+00  0.00000000E+00  0.00000000E+00
  0.00000000E+00  0.00000000E+00  0.00000000E+00
  0.00000000E+00  0.00000000E+00  0.00000000E+00
  0.00000000E+00  0.00000000E+00  0.00000000E+00
  0.00000000E+00  0.00000000E+00  0.00000000E+00
  0.00000000E+00  0.00000000E+00  0.00000000E+00
  0.00000000E+00  0.00000000E+00  0.00000000E+00
  0.00000000E+00  0.00000000E+00  0.00000000E+00
  0.00000000E+00  0.00000000E+00  0.00000000E+00
  0.00000000E+00  0.00000000E+00  0.00000000E+00
  0.00000000E+00  0.00000000E+00  0.00000000E+00
  0.00000000E+00  0.00000000E+00  0.00000000E+00
  0.00000000E+00  0.00000000E+00  0.00000000E+00
  0.00000000E+00  0.00000000E+00  0.00000000E+00
  0.00000000E+00  0.00000000E+00  0.00000000E+00
  0.00000000E+00  0.00000000E+00  0.00000000E+00
  0.00000000E+00  0.00000000E+00  0.00000000E+00
  0.00000000E+00  0.00000000E+00  0.00000000E+00
  0.00000000E+00  0.00000000E+00  0.00000000E+00
  0.00000000E+00  0.00000000E+00  0.00000000E+00
  0.00000000E+00  0.00000000E+00  0.00000000E+00
  0.00000000E+00  0.00000000E+00  0.00000000E+00
  0.00000000E+00  0.00000000E+00  0.00000000E+00
  0.00000000E+00  0.00000000E+00  0.00000000E+00
  0.00000000E+00  0.00000000E+00  0.00000000E+00
  0.00000000E+00  0.00000000E+00  0.00000000E+00
  0.00000000E+00  0.00000000E+00  0.00000000E+00
  0.00000000E+00  0.00000000E+00  0.00000000E+00
  0.00000000E+00  0.00000000E+00  0.00000000E+00
  0.00000000E+00  0.00000000E+00  0.00000000E+00
  0.00000000E+00  0.00000000E+00  0.00000000E+00
  0.00000000E+00  0.00000000E+00  0.00000000E+00
  0.00000000E+00  0.00000000E+00  0.00000000E+00
  0.00000000E+00  0.00000000E+00  0.00000000E+00
  0.00000000E+00  0.00000000E+00  0.00000000E+00
  0.00000000E+00  0.00000000E+00  0.00000000E+00
  0.00000000E+00  0.00000000E+00  0.00000000E+00
  0.00000000E+00  0.00000000E+00  0.00000000E+00
  0.00000000E+00  0.00000000E+00  0.00000000E+00
  0.00000000E+00  0.00000000E+00  0.00000000E+00
  0.00000000E+00  0.00000000E+00  0.00000000E+00
  0.00000000E+00  0.00000000E+00  0.00000000E+00
  0.00000000E+00  0.00000000E+00  0.00000000E+00
  0.00000000E+00  0.00000000E+00  0.00000000E+00
  0.00000000E+00  0.00000000E+00  0.00000000E+00
  0.00000000E+00  0.00000000E+00  0.00000000E+00
  0.00000000E+00  0.00000000E+00  0.00000000E+00
  0.00000000E+00  0.00000000E+00  0.00000000E+00
  0.00000000E+00  0.00000000E+00  0.00000000E+00
  0.00000000E+00  0.00000000E+00  0.00000000E+00
  0.00000000E+00  0.00000000E+00  0.00000000E+00
  0.00000000E+00  0.00000000E+00  0.00000000E+00
  0.00000000E+00  0.00000000E+00  0.00000000E+00
  0.00000000E+00  0.00000000E+00  0.00000000E+00
  0.00000000E+00  0.00000000E+00  0.00000000E+00
  0.00000000E+00  0.00000000E+00  0.00000000E+00
  0.00000000E+00  0.00000000E+00  0.00000000E+00
  0.00000000E+00  0.00000000E+00  0.00000000E+00
  0.00000000E+00  0.00000000E+00  0.00000000E+00
  0.00000000E+00  0.00000000E+00  0.00000000E+00
  0.00000000E+00  0.00000000E+00  0.00000000E+00
  0.00000000E+00  0.00000000E+00  0.00000000E+00
  0.00000000E+00  0.00000000E+00  0.00000000E+00
  0.00000000E+00  0.00000000E+00  0.00000000E+00
  0.00000000E+00  0.00000000E+00  0.00000000E+00
  0.00000000E+00  0.00000000E+00  0.00000000E+00
  0.00000000E+00  0.00000000E+00  0.00000000E+00
  0.00000000E+00  0.00000000E+00  0.00000000E+00
  0.00000000E+00  0.00000000E+00  0.00000000E+00
  0.00000000E+00  0.00000000E+00  0.00000000E+00
  0.00000000E+00  0.00000000E+00  0.00000000E+00
  0.00000000E+00  0.00000000E+00  0.00000000E+00
  0.00000000E+00  0.00000000E+00  0.00000000E+00
  0.00000000E+00  0.00000000E+00  0.00000000E+00
  0.00000000E+00  0.00000000E+00  0.00000000E+00
  0.00000000E+00  0.00000000E+00  0.00000000E+00
  0.00000000E+00  0.00000000E+00  0.00000000E+00
  0.00000000E+00  0.00000000E+00  0.00000000E+00
  0.00000000E+00  0.00000000E+00  0.00000000E+00
  0.00000000E+00  0.00000000E+00  0.00000000E+00
  0.00000000E+00  0.00000000E+00  0.00000000E+00
  0.00000000E+00  0.00000000E+00  0.00000000E+00
  0.00000000E+00  0.00000000E+00  0.00000000E+00
  0.00000000E+00  0.00000000E+00  0.00000000E+00
  0.00000000E+00  0.00000000E+00  0.00000000E+00
