Cl Na  O 
 1.0000000000000000
    -8.9073273000000004    8.9073273000000004    0.0000000000000000
   -17.8146546000000008    0.0000000000000000    0.0000000000000000
     0.0000000000000000    0.0000000000000000   44.3302634557565227
 Cl  Na  O  
  32 204  32
Cartesian
 -2.3049201418796148  1.8026087849248702  3.7546796018372746
 -2.3049026835181068  1.8026351506136780  8.3019308732564205
 -2.3049200528063416  1.8026452158935271 12.8150045958746848
 -2.3049235266639889  1.8026415638893338 17.2789447109906931
 -6.7584125930489085  1.8028154349182302  3.7559713204177889
 -6.7585857514916210  1.8026406731566040  8.3019780706660953
 -6.7585902051552704  1.8026415638893338 12.8139538324909186
 -6.7585875329570806  1.8026422764755181 17.2818375533929114
 -11.2122213434106239  1.8026234820149152  3.7547049945956950
 -11.2122449478279709  1.8026413857427879  8.3019317012811520
 -11.2122495796381667  1.8026451268202539 12.8150023878087342
 -11.2122514501768986  1.8026414748160611 17.2789455390154174
 -15.6657216330279443  1.8028148114053191  3.7559718724342765
 -15.6659284611678498  1.8026347052473128  8.3019678583610776
 -15.6658820539926165  1.8026991052236920 12.8137222615744530
 -15.6659148329570801  1.8026415638893338 17.2818356213352047
 -6.7585619689277294  6.2562885571872826  3.7547000264473063
 -6.7585869094441700  6.2563074407211596  8.3019297692234453
 -6.7585870875907155  6.2563108255055324 12.8150048718829250
 -6.7585869985174423  6.2563048575962421 17.2789447109906931
 -11.2120582502477628  6.2564771253062244  3.7559727004590080
 -11.2122647220945755  6.2562986224671322  8.3019700664270282
 -11.2122183149193457  6.2563617754176901 12.8137219855662092
 -11.2122515392501736  6.2563050357427885 17.2818358973434485
 -15.6659128733450732  6.2562761760023360  3.7546853980103911
 -15.6658986216213929  6.2563018291049604  8.3019333573306149
 -15.6659140312976231  6.2563088658935264 12.8150026638169781
 -15.6659142094441695  6.2563040559367851 17.2789449869989369
 -20.1193976642128902  6.2564853200473403  3.7559738044919833
 -20.1195981681504108  6.2562922982647482  8.3019874549463815
 -20.1195445460400677  6.2563628442969650 12.8137236416156721
 -20.1195793736898096  6.2563046794496957 17.2818358973434485
 -4.5317012841872772  4.0294480030065296  3.7882303359167153
 -4.5293694349734110  1.8007143745547061  1.5019908474618076
 -4.5317300548544566  4.0295213103102085  8.3052562205765206
 -4.5537333801172819  1.8024529957703930  6.0470765582008852
 -4.5317569549829031  4.0294844339751865 12.8176771836984305
 -4.5262403799661932  1.8009442726723188 10.5633329318772553
 -4.5317410999403087  4.0294985075523204 17.2966525718817508
 -4.5156858206286046  1.8024327761374219 15.0846010632427241
 -6.7568978129682709  4.0282614579368969  1.5004068361512131
 -8.9853806110833254  4.0295303067107815  3.7893986788122973
 -8.9877050672155345  1.8049055392691749  1.5021398919134059
 -6.7578581119244836  4.0529656629836275  6.0413035697756570
 -8.9854071549186791  4.0294891548586556  8.3039518056167942
 -8.9634138058624320  1.8028104468149420  6.0471030549922808
 -6.7580769649562447  4.0256024425913006 10.5617787294569787
 -8.9854119648754214  4.0294927177895756 12.8194146555925226
 -8.9908494428257075  1.8043941696088819 10.5632653098575453
 -6.7583141670822435  4.0142957485364992 15.0799006428525129
 -8.9854046608670348  4.0294909363241151 17.2995247136656900
 -9.0015011811041372  1.8028704822009440 15.0845941630366287
 -11.2137396864221852  4.0308033419284977  1.5000019320577058
 -13.4390476458677011  4.0295256749005857  3.7882722891697576
 -13.4367105413307275  1.8007296060843889  1.5019764950331345
 -11.2128956280872369  4.0059308774690692  6.0412972215860492
 -13.4390839877630857  4.0293856517154296  8.3053296387693436
 -13.4610595221647298  1.8024566477745863  6.0470853904646837
 -11.2127779622936021  4.0333616154023302 10.5618074343143249
 -13.4390861255216354  4.0294825634364528 12.8176937441930523
 -13.4335542299019703  1.8009338510993782 10.5633599806851350
 -11.2125271319568345  4.0446744555129683 15.0799072670503609
 -13.4390677764273949  4.0294989529186855 17.2966591960796023
 -13.4230115173096909  1.8024325979908760 15.0846049273581375
 -15.6642318825370186  4.0282698308245584  1.5004225686211035
 -17.8927236770526434  4.0293960732883702  3.7894525004198201
 -17.8950408291764660  1.8049045594631719  1.5021484481689606
 -15.6651569975503957  4.0530592789935511  6.0412710008028974
 -17.8927610878273100  4.0295453600939188  8.3039854786225256
 -17.8706279828057220  1.8027765989712021  6.0474593816348978
 -15.6654080060337098  4.0256122406513306 10.5618055022566182
 -17.8927536056723753  4.0294908472508419 12.8194121715183282
 -17.8981806620497181  1.8043964855139802 10.5632804903109516
 -15.6656419124486082  4.0142970846355945 15.0799042309596825
 -17.8927328515997672  4.0294909363241151 17.2995244376574533
 -17.9088337364272476  1.8028721745931309 15.0845969231190704
 -20.1210641360774503  4.0307963942132030  1.5000041401236546
 -20.1202280052637974  4.0059425460678328  6.0413132300641834
 -20.1201172871854581  4.0333633077945175 10.5617740373168374
 -20.1198560352757525  4.0446737429267845 15.0799011948690005
 -8.9853855101133409  8.4831879888014896  3.7882703571120508
 -8.9830457333781766  6.2543940577438466  1.5019759430166468
 -8.9854199814699935  8.4830489454223379  8.3053288107446122
 -9.0073953377250948  6.2561247514382368  6.0470853904646837
 -8.9854206940561756  8.4831474604622752 12.8176934681848085
 -8.9798830977470399  6.2545996388579299 10.5633655008500078
 -8.9854043936472170  8.4831630482850500 17.2966589200713585
 -8.9693468875036881  6.2560963370641494 15.0846052033663778
 -11.2105674308775622  8.4819351732167441  1.5004236726540787
 -13.4390512087986185  8.4830678289562123  3.7894530524363041
 -13.4413754867842830  6.2585690111226286  1.5021492761936903
 -11.2114879140807435  8.5067237306530075  6.0412723808441164
 -13.4390871053276388  8.4832216584986835  8.3039857546307694
 -13.4169569397240611  6.2564424758030279  6.0474651778080144
 -11.2117414166157001  8.4792845307588109 10.5618126784709538
 -13.4390821172243502  8.4831634045781428 12.8194174156749607
 -13.4445172792695384  6.2580639656647197 10.5632818703521671
 -11.2119782624486088  8.4679610909286858 15.0799036789431948
 -13.4390679545739449  8.4831558333499366 17.2995247136656900
 -13.4551687503281503  6.2565364481060426 15.0845996832015050
 -15.6674007532972670  8.4844615584588432  1.5000044161318984
 -17.8926907199416405  8.4831133453987153  3.7882386161640262
 -17.8903619882923266  6.2543789152874361  1.5019905714535637
 -15.6665617721388823  8.4595854419952232  6.0412936334788832
 -17.8927209157811831  8.4831839805042044  8.3052678129227537
 -17.9147271804620161  6.2561146861583872  6.0470691059783057
 -15.6664498961079932  8.4870285611134300 10.5617988780587702
 -17.8927492410820008  8.4831460352899057 12.8176846359210099
 -17.8872142278977790  6.2546072100861352 10.5633682609324495
 -15.6661920289826551  8.4983405995646120 15.0799036789431948
 -17.8927318717937638  8.4831641171643248 17.2966569880136518
 -17.8766750782364170  6.2560970496503332 15.0846052033663778
 -20.1178878722355421  8.4819242172041651  1.5004084922006742
 -22.3463798448977187  8.4831854947498453  3.7893961947381030
 -22.3486973533146269  6.2585696346355393  1.5021385118721868
 -20.1188535155881354  8.5066266407854361  6.0412963935613178
 -22.3464083483450793  8.4831398892340708  8.3039518056167942
 -22.3243878319405624  6.2564742749614881  6.0471193394786589
 -20.1190698745682539  8.4792805224615257 10.5618143345204167
 -22.3464107533234468  8.4831476386088198 12.8194124475265721
 -22.3519581476926135  6.2580218340065903 10.5633202354980433
 -20.1193044935693308  8.4679587750235878 15.0799042309596825
 -22.3463958780868523  8.4831553879835724 17.2995249896739409
 -22.3624964956945149  6.2565343994207634 15.0845941630366287
 -24.5747314380816420  8.4844663684155854  1.4999999999999991
 -24.5738898737983362  8.4595857092150410  6.0412905973882012
 -24.5737728315176156  8.4870245528161448 10.5618071583060775
 -24.5735181710301092  8.4983357005345965 15.0799056110008980
 -2.7452488918238047  1.7503629145634381 22.2489268120922929
 -5.7184968408359307  1.7467238259950231 20.2426048591970158
 -2.7446539714334377  1.7511083687851750 26.3399166533958606
 -5.7143701651711138  1.7518538230069121 24.2097561623113791
 -2.7458092517842476  1.7473956166199891 30.4999943886581022
 -5.7145511620618503  1.7488910678003859 28.4493625614867582
 -2.7474488235203585  1.7466398298985841 34.6258364860346362
 -5.7156269890531446  1.7470278330757720 32.5774284127354008
 -2.7455479998745385  1.7477862029220941 38.8616309361434347
 -5.7170607124553525  1.7487727784938421 36.7361150742031981
 -2.7466841294716535  1.7466814271170750 42.8239148839765136
 -5.7136745029089848  1.7487549638392421 40.8245139265709156
 -5.6918179704000638  4.7131411910671455 22.2580547254626211
 -8.6736748512476396  4.7226286525941941 20.2455357247104857
 -5.6902305956019301  4.7087276994632683 26.3505138577709630
 -8.6559403625933413  4.7267082084975938 24.2367347863778448
 -5.6845824593609997  4.7207641708437578 30.4851471486886112
 -8.6575842989198293  4.7185081229852139 28.4291741032263232
 -5.6901865934050679  4.7113740664040984 34.6436051212724010
 -8.6526088440365942  4.7205594804624038 32.5916348327799170
 -5.6865499988882977  4.7244814657458676 38.8369111409312922
 -8.6554865342674052  4.7099986859957044 36.7204246316613805
 -5.7062343905618409  4.7255140921997567 42.8286422900787827
 -8.6608192620486424  4.7161172181913482 40.8116778860813412
 -8.6833208632006293  1.7502913887252189 22.2484799568189402
 -11.6590726619167864  1.7457902490207100 20.2443442275648096
 -8.6836311054104875  1.7497614918241420 26.3409601341166066
 -11.6530807028420753  1.7518964000314061 24.2096744376028283
 -8.6845993318879984  1.7479616772699040 30.4979098824653647
 -11.6533295735668396  1.7499797213429920 28.4495744143793061
 -8.6852619479658451  1.7468501318961371 34.6265292169332852
 -11.6549199768562541  1.7471303564129950 32.5760226074484294
 -8.6833938142112146  1.7489156520237341 38.8599164710130083
 -11.6553089598394433  1.7467404826970740 36.7375899772051326
 -8.6833269201831929  1.7493896109093670 42.8248885654826665
 -11.6522535684289981  1.7492614344695201 40.8252989046727706
 -8.7087333789142569  7.6942003316817340 22.2576110269376670
 -11.6617975024111278  7.6798113460880417 20.2466760123821317
 -8.7062165245123673  7.7000711511051643 26.3503090198748566
 -11.6768860694909637  7.6803697464364786 24.2379739854993232
 -8.7114399593876328  7.6816426035076475 30.4841773254305082
 -11.6754866392988603  7.6889438506221852 28.4305514977777136
 -8.7035095877458986  7.6870269047139530 34.6478902318489972
 -11.6810757199597930  7.6812366075293141 32.5935081875797508
 -8.7079882809856120  7.6813722661240931 38.8369241186747090
 -11.6763465526764030  7.6982605586848933 36.7261643017502237
 -8.6901852059111011  7.6826616908240410 42.8302634557565227
 -11.6725707366339329  7.6880130349193347 40.8171387100616130
 -11.6297687130523357  4.7129210019362890 22.2583125265818680
 -14.6116140143744211  4.7278189522119041 20.2481824828680530
 -11.6287530995935882  4.7091401977905312 26.3507141359193824
 -14.5959803188638269  4.7294615524392976 24.2348228490975757
 -11.6225285702030749  4.7220642843364660 30.4820314380189004
 -14.6028048458212680  4.7220680254139316 28.4319096010888828
 -11.6261633832543883  4.7144307939136390 34.6469158488432001
 -14.5890754478141407  4.7225639853979962 32.5908617801720126
 -11.6269450012249624  4.7246805445110223 38.8379928533826515
 -14.5939902437984603  4.7096840791954691 36.7245020983432937
 -11.6447660691006192  4.7240174830668105 42.8286251033374938
 -14.5985726183279461  4.7144992912605757 40.8165189351259627
 -14.6227599311714584  1.7499800776360841 22.2496581254713703
 -17.5949933356041122  1.7450376689371330 20.2445539759584250
 -14.6207122256984601  1.7524250499066611 26.3406521757728029
 -17.5893693382201661  1.7521263872222921 24.2112738567916068
 -14.6211726454465971  1.7477090654676761 30.4990442073900354
 -17.5900366751814836  1.7508490764874720 28.4511499825801764
 -14.6250187403014635  1.7480682979776851 34.6255871029111262
 -17.5937178063347552  1.7481249485793131 32.5779163057379435
 -14.6241484944242544  1.7506997006086511 38.8629999126990882
 -17.5932083072131960  1.7477335606177511 36.7358267578494377
 -14.6207049216900735  1.7463117730341251 42.8246167343705366
 -17.5904314479274184  1.7496579886809160 40.8240337500644586
 -14.6462271756760387  7.6950826915240729 22.2587628893534415
 -17.6019605579449028  7.6805901137138806 20.2468990892689860
 -14.6475182927681740  7.7001508716844995 26.3491027912366604
 -17.6170867139459446  7.6802406792639006 24.2390136079720264
 -14.6516313402222220  7.6840763525458273 30.4844242533052636
 -17.6156537031299187  7.6879323345339969 28.4309373225820181
 -14.6376715987311155  7.6871064471467418 34.6491059307323965
 -17.6191614086206592  7.6815986903840594 32.5930259065743684
 -14.6452726664825708  7.6830531678588763 38.8394495173938310
 -17.6134341753133050  7.6974813456926903 36.7251723812533228
 -14.6319285994544384  7.6817530543661681 42.8285395203809003
 -17.6125081695671959  7.6904928348396551 40.8158675927063257
 -17.5705361307434131  4.7144983114545731 22.2599624537450254
 -20.5493581961066063  4.7247707757365704 20.2460415059539542
 -17.5666362356316519  4.7101942018299408 26.3503756623410581
 -20.5340300219224012  4.7285912174888143 24.2353654590723693
 -17.5622763661381249  4.7192558931120487 30.4862597271243132
 -20.5362335165498742  4.7190626931829120 28.4307317831862676
 -17.5649822340253188  4.7146005675719769 34.6467783549129393
 -20.5290934029861951  4.7220231324843400 32.5899803458690727
 -17.5658798253973387  4.7241936700008038 38.8367147210309156
 -20.5332342413014182  4.7063674358753147 36.7215877180714614
 -17.5819188043000842  4.7247994573304775 42.8294300741792142
 -20.5369380861393047  4.7147743495276000 40.8151836305532285
 -20.5856494087982718  7.6944285374071599 22.2585015807359810
 -23.5382142765999767  7.6801810892442646 20.2468180660600794
 -20.5850662460799434  7.6995213017909352 26.3505668209941035
 -23.5523345281290339  7.6789613198438023 24.2391749528901954
 -20.5899606442847407  7.6830176276229487 30.4853653150779564
 -23.5530212830638597  7.6886104493613461 28.4306777677136679
 -20.5784344736852667  7.6860150323326719 34.6476973194468414
 -23.5554192246462897  7.6825241616905293 32.5938757733933144
 -20.5837901823709366  7.6800789222001331 38.8385133661186472
 -23.5518481880584538  7.6972354143859354 36.7254505258622501
 -20.5680696404191714  7.6827245765547785 42.8300789613501038
 -23.5518045421546809  7.6870564770405885 40.8155442013703507
 -4.5316694850288162  4.0297733876727984  1.5471099150594467
 -4.5317133090791328  4.0294828306562724  6.0478383409534970
 -4.5317614086465525  4.0294853247079159 10.5624386651676652
 -4.5317482258021489  4.0294926287163024 15.0780221307458913
 -8.9853552252005198  4.0297819387070062  1.5473850952784156
 -8.9853861336262515  4.0294729435229693  6.0479793811660265
 -8.9854169529787082  4.0294877296862879 10.5621717651960090
 -8.9854172201985296  4.0294920942766641 15.0800207064385230
 -13.4389990118606395  4.0297781085562674  1.5471303396694802
 -13.4390251103296325  4.0294664411740406  6.0478836063054651
 -13.4390817609312609  4.0294871061733764 10.5624775823300254
 -13.4390757039486974  4.0294917379835722 15.0780295829684707
 -17.8926869788641696  4.0297733876727984  1.5474115920698095
 -17.8927013196611213  4.0294480030065296  6.0480152622377084
 -17.8927556543576571  4.0294907581775696 10.5621811494762916
 -17.8927457672243477  4.0294885313457440 15.0800198784137915
 -8.9853352727873688  8.4834418476295390  1.5471292356365050
 -8.9853606586701726  8.4831307146869506  6.0478830542889774
 -8.9854192688838079  8.4831494200742803 10.5624773063217852
 -8.9854114304357839  8.4831556552033902 15.0780293069602269
 -13.4390228834978043  8.4834371267460700  1.5474124200945409
 -13.4390326815578351  8.4831137907650813  6.0480163662706836
 -13.4390887086465529  8.4831614449661359 10.5621836335504860
 -13.4390772181943365  8.4831522704190174 15.0800226384962297
 -17.8926606131753658  8.4834368595262521  1.5471143311913460
 -17.8927057733247707  8.4831446101175381  6.0478427570853945
 -17.8927452327847121  8.4831555661301170 10.5624541216293153
 -17.8927433622459802  8.4831517359793782 15.0780304109932022
 -22.3463462642737980  8.4834451433406404  1.5473842672536842
 -22.3463808247037150  8.4831330305920485  6.0479774491083198
 -22.3464166321594604  8.4831503108070105 10.5621695571300585
 -22.3464087937114400  8.4831515578328318 15.0800201544220354
