Na  O Cl                                
   1.00000000000000     
    -3.1518425247742479   -3.1518425247742479    0.0000000000000000
     4.4573784449999989   -4.4573784449999989    0.0000000000000000
    17.4000395912871859  -17.4000395912871859   24.6073719758271494
   Na   O    Cl
    24     8     8
Direct
  0.5000001744298856  0.4999998255701144  0.2438293697471678
  0.0000001000000012  0.4999998255701144  0.3078720273103741
  0.5000001744298856  0.9999998999999988  0.2438293697471678
  0.5000001744298856  0.4999998255701144  0.3078720273103741
  0.0000001000000012  0.4999998255701144  0.3719146848735804
  0.5000001744298856  0.9999998999999988  0.3078720273103741
  0.5000001744298856  0.4999998255701144  0.3719146848735804
  0.0000001000000012  0.4999998255701144  0.4359573424367937
  0.5000001744298856  0.9999998999999988  0.3719146848735804
  0.5000001744298856  0.4999998255701144  0.4359573424367937
  0.0000001000000012  0.4999998255701144  0.5000000000000000
  0.5000001744298856  0.9999998999999988  0.4359573424367937
  0.5000001744298856  0.4999998255701144  0.5000000000000000
  0.0000001000000012  0.4999998255701144  0.5640426575632063
  0.5000001744298856  0.9999998999999988  0.5000000000000000
  0.5000001744298856  0.4999998255701144  0.5640426575632063
  0.0000001000000012  0.4999998255701144  0.6280853151264196
  0.5000001744298856  0.9999998999999988  0.5640426575632063
  0.5000001744298856  0.4999998255701144  0.6280853151264196
  0.0000001000000012  0.4999998255701144  0.6921279726896259
  0.5000001744298856  0.9999998999999988  0.6280853151264196
  0.5000001744298856  0.4999998255701144  0.6921279726896259
  0.0000001000000012  0.4999998255701144  0.7561706302528322
  0.5000001744298856  0.9999998999999988  0.6921279726896259
  0.5000001744298856  0.4999998255701144  0.3078720273103741
  0.5000001744298856  0.4999998255701144  0.3719146848735804
  0.5000001744298856  0.4999998255701144  0.4359573424367937
  0.5000001744298856  0.4999998255701144  0.5000000000000000
  0.5000001744298856  0.4999998255701144  0.5640426575632063
  0.5000001744298856  0.4999998255701144  0.6280853151264196
  0.5000001744298856  0.4999998255701144  0.6921279726896259
  0.5000001744298856  0.4999998255701144  0.7561706302528322
  0.0000001000000012  0.9999998999999988  0.3078720082436277
  0.0000001000000012  0.9999998999999988  0.3719146658068340
  0.0000001000000012  0.9999998999999988  0.4359573233700473
  0.0000001000000012  0.9999998999999988  0.4999999809332536
  0.0000001000000012  0.9999998999999988  0.5640426384964599
  0.0000001000000012  0.9999998999999988  0.6280852960596732
  0.0000001000000012  0.9999998999999988  0.6921279536228795
  0.0000001000000012  0.9999998999999988  0.7561706111860858
 
  0.00000000E+00  0.00000000E+00  0.00000000E+00
  0.00000000E+00  0.00000000E+00  0.00000000E+00
  0.00000000E+00  0.00000000E+00  0.00000000E+00
  0.00000000E+00  0.00000000E+00  0.00000000E+00
  0.00000000E+00  0.00000000E+00  0.00000000E+00
  0.00000000E+00  0.00000000E+00  0.00000000E+00
  0.00000000E+00  0.00000000E+00  0.00000000E+00
  0.00000000E+00  0.00000000E+00  0.00000000E+00
  0.00000000E+00  0.00000000E+00  0.00000000E+00
  0.00000000E+00  0.00000000E+00  0.00000000E+00
  0.00000000E+00  0.00000000E+00  0.00000000E+00
  0.00000000E+00  0.00000000E+00  0.00000000E+00
  0.00000000E+00  0.00000000E+00  0.00000000E+00
  0.00000000E+00  0.00000000E+00  0.00000000E+00
  0.00000000E+00  0.00000000E+00  0.00000000E+00
  0.00000000E+00  0.00000000E+00  0.00000000E+00
  0.00000000E+00  0.00000000E+00  0.00000000E+00
  0.00000000E+00  0.00000000E+00  0.00000000E+00
  0.00000000E+00  0.00000000E+00  0.00000000E+00
  0.00000000E+00  0.00000000E+00  0.00000000E+00
  0.00000000E+00  0.00000000E+00  0.00000000E+00
  0.00000000E+00  0.00000000E+00  0.00000000E+00
  0.00000000E+00  0.00000000E+00  0.00000000E+00
  0.00000000E+00  0.00000000E+00  0.00000000E+00
  0.00000000E+00  0.00000000E+00  0.00000000E+00
  0.00000000E+00  0.00000000E+00  0.00000000E+00
  0.00000000E+00  0.00000000E+00  0.00000000E+00
  0.00000000E+00  0.00000000E+00  0.00000000E+00
  0.00000000E+00  0.00000000E+00  0.00000000E+00
  0.00000000E+00  0.00000000E+00  0.00000000E+00
  0.00000000E+00  0.00000000E+00  0.00000000E+00
  0.00000000E+00  0.00000000E+00  0.00000000E+00
  0.00000000E+00  0.00000000E+00  0.00000000E+00
  0.00000000E+00  0.00000000E+00  0.00000000E+00
  0.00000000E+00  0.00000000E+00  0.00000000E+00
  0.00000000E+00  0.00000000E+00  0.00000000E+00
  0.00000000E+00  0.00000000E+00  0.00000000E+00
  0.00000000E+00  0.00000000E+00  0.00000000E+00
  0.00000000E+00  0.00000000E+00  0.00000000E+00
  0.00000000E+00  0.00000000E+00  0.00000000E+00
