Na  O Cl                                
   1.00000000000000     
    -3.1518425247742479   -3.1518425247742479    0.0000000000000000
     4.4573784449999989   -4.4573784449999989    0.0000000000000000
    16.2856948141561091  -16.2856948141561091   23.0314504788487540
   Na   O    Cl
    21     7     7
Direct
  0.5000001744298856  0.4999998255701144  0.2605133361231466
  0.0000001000000012  0.4999998255701144  0.3289380972308180
  0.5000001744298856  0.9999998999999988  0.2605133361231466
  0.5000001744298856  0.4999998255701144  0.3289380972308180
  0.0000001000000012  0.4999998255701144  0.3973628583384894
  0.5000001744298856  0.9999998999999988  0.3289380972308180
  0.5000001744298856  0.4999998255701144  0.3973628583384894
  0.0000001000000012  0.4999998255701144  0.4657876194461608
  0.5000001744298856  0.9999998999999988  0.3973628583384894
  0.5000001744298856  0.4999998255701144  0.4657876194461608
  0.0000001000000012  0.4999998255701144  0.5342123805538392
  0.5000001744298856  0.9999998999999988  0.4657876194461608
  0.5000001744298856  0.4999998255701144  0.5342123805538392
  0.0000001000000012  0.4999998255701144  0.6026371416615106
  0.5000001744298856  0.9999998999999988  0.5342123805538392
  0.5000001744298856  0.4999998255701144  0.6026371416615106
  0.0000001000000012  0.4999998255701144  0.6710619027691820
  0.5000001744298856  0.9999998999999988  0.6026371416615106
  0.5000001744298856  0.4999998255701144  0.6710619027691820
  0.0000001000000012  0.4999998255701144  0.7394866638768534
  0.5000001744298856  0.9999998999999988  0.6710619027691820
  0.5000001744298856  0.4999998255701144  0.3289380972308180
  0.5000001744298856  0.4999998255701144  0.3973628583384894
  0.5000001744298856  0.4999998255701144  0.4657876194461608
  0.5000001744298856  0.4999998255701144  0.5342123805538392
  0.5000001744298856  0.4999998255701144  0.6026371416615106
  0.5000001744298856  0.4999998255701144  0.6710619027691820
  0.5000001744298856  0.4999998255701144  0.7394866638768534
  0.0000001000000012  0.9999998999999988  0.3289380768594370
  0.0000001000000012  0.9999998999999988  0.3973628379671084
  0.0000001000000012  0.9999998999999988  0.4657875990747797
  0.0000001000000012  0.9999998999999988  0.5342123601824511
  0.0000001000000012  0.9999998999999988  0.6026371212901225
  0.0000001000000012  0.9999998999999988  0.6710618823977939
  0.0000001000000012  0.9999998999999988  0.7394866435054652
 
  0.00000000E+00  0.00000000E+00  0.00000000E+00
  0.00000000E+00  0.00000000E+00  0.00000000E+00
  0.00000000E+00  0.00000000E+00  0.00000000E+00
  0.00000000E+00  0.00000000E+00  0.00000000E+00
  0.00000000E+00  0.00000000E+00  0.00000000E+00
  0.00000000E+00  0.00000000E+00  0.00000000E+00
  0.00000000E+00  0.00000000E+00  0.00000000E+00
  0.00000000E+00  0.00000000E+00  0.00000000E+00
  0.00000000E+00  0.00000000E+00  0.00000000E+00
  0.00000000E+00  0.00000000E+00  0.00000000E+00
  0.00000000E+00  0.00000000E+00  0.00000000E+00
  0.00000000E+00  0.00000000E+00  0.00000000E+00
  0.00000000E+00  0.00000000E+00  0.00000000E+00
  0.00000000E+00  0.00000000E+00  0.00000000E+00
  0.00000000E+00  0.00000000E+00  0.00000000E+00
  0.00000000E+00  0.00000000E+00  0.00000000E+00
  0.00000000E+00  0.00000000E+00  0.00000000E+00
  0.00000000E+00  0.00000000E+00  0.00000000E+00
  0.00000000E+00  0.00000000E+00  0.00000000E+00
  0.00000000E+00  0.00000000E+00  0.00000000E+00
  0.00000000E+00  0.00000000E+00  0.00000000E+00
  0.00000000E+00  0.00000000E+00  0.00000000E+00
  0.00000000E+00  0.00000000E+00  0.00000000E+00
  0.00000000E+00  0.00000000E+00  0.00000000E+00
  0.00000000E+00  0.00000000E+00  0.00000000E+00
  0.00000000E+00  0.00000000E+00  0.00000000E+00
  0.00000000E+00  0.00000000E+00  0.00000000E+00
  0.00000000E+00  0.00000000E+00  0.00000000E+00
  0.00000000E+00  0.00000000E+00  0.00000000E+00
  0.00000000E+00  0.00000000E+00  0.00000000E+00
  0.00000000E+00  0.00000000E+00  0.00000000E+00
  0.00000000E+00  0.00000000E+00  0.00000000E+00
  0.00000000E+00  0.00000000E+00  0.00000000E+00
  0.00000000E+00  0.00000000E+00  0.00000000E+00
  0.00000000E+00  0.00000000E+00  0.00000000E+00
