Na  O Cl 
 1.0000000000000000
    -3.1518425247742479   -3.1518425247742479    0.0000000000000000
     4.4573784449999989   -4.4573784449999989    0.0000000000000000
    16.2856948141561091  -16.2856948141561091   23.0314504788487540
 Na  O   Cl 
  21   7   7
Cartesian
  4.8954073199566377 -8.0472509442819309  6.0000000000000000
  7.5856735940661091 -7.5856742244346140  7.5759214969783937
  7.1240968742187931 -10.2759404985440845  6.0000000000000000
  6.0097520970877145 -9.1615957214130077  7.5759214969783937
  8.7000183711971850 -8.7000190015656909  9.1518429939567874
  8.2384416513498699 -11.3902852756751614  7.5759214969783937
  7.1240968742187922 -10.2759404985440845  9.1518429939567874
  9.8143631483282618 -9.8143637786967695 10.7277644909351793
  9.3527864284809468 -12.5046300528062382  9.1518429939567874
  8.2384416513498699 -11.3902852756751614 10.7277644909351793
 10.9287079254593404 -10.9287085558278463 12.3036859879135747
 10.4671312056120236 -13.6189748299373150 10.7277644909351793
  9.3527864284809468 -12.5046300528062382 12.3036859879135747
 12.0430527025904173 -12.0430533329589231 13.8796074848919666
 11.5814759827431004 -14.7333196070683918 12.3036859879135747
 10.4671312056120236 -13.6189748299373150 13.8796074848919666
 13.1573974797214923 -13.1573981100899999 15.4555289818703603
 12.6958207598741772 -15.8476643841994687 13.8796074848919666
 11.5814759827431004 -14.7333196070683918 15.4555289818703603
 14.2717422568525727 -14.2717428872210768 17.0314504788487540
 13.8101655370052541 -16.9620091613305490 15.4555289818703603
  6.0097520970877154 -9.1615957214130077  7.5759214969783937
  7.1240968742187922 -10.2759404985440845  9.1518429939567874
  8.2384416513498699 -11.3902852756751614 10.7277644909351793
  9.3527864284809468 -12.5046300528062382 12.3036859879135747
 10.4671312056120236 -13.6189748299373150 13.8796074848919666
 11.5814759827431004 -14.7333196070683918 15.4555289818703603
 12.6958207598741772 -15.8476643841994722 17.0314504788487540
  9.8143628165661099 -9.8143634469346139  7.5759210277958546
 10.9287075936971867 -10.9287082240656908  9.1518425247742492
 12.0430523708282635 -12.0430530011967676 10.7277640217526411
 13.1573971479593403 -13.1573977783278444 12.3036855187310348
 14.2717419250904172 -14.2717425554589212 13.8796070157094285
 15.3860867022214940 -15.3860873325899981 15.4555285126878221
 16.5004314793525708 -16.5004321097210749 17.0314500096662158
