Na  O Cl                                
   1.00000000000000     
    -3.1518425247742479   -3.1518425247742479    0.0000000000000000
     4.4573784449999989   -4.4573784449999989    0.0000000000000000
    14.0570052598939519  -14.0570052598939519   19.8796074848919666
   Na   O    Cl
    15     5     5
Direct
  0.5000001744298856  0.4999998255701144  0.3018168243291441
  0.0000001000000012  0.4999998255701144  0.3810900945974893
  0.5000001744298856  0.9999998999999988  0.3018168243291441
  0.5000001744298856  0.4999998255701144  0.3810900945974893
  0.0000001000000012  0.4999998255701144  0.4603633648658274
  0.5000001744298856  0.9999998999999988  0.3810900945974893
  0.5000001744298856  0.4999998255701144  0.4603633648658274
  0.0000001000000012  0.4999998255701144  0.5396366351341726
  0.5000001744298856  0.9999998999999988  0.4603633648658274
  0.5000001744298856  0.4999998255701144  0.5396366351341726
  0.0000001000000012  0.4999998255701144  0.6189099054025107
  0.5000001744298856  0.9999998999999988  0.5396366351341726
  0.5000001744298856  0.4999998255701144  0.6189099054025107
  0.0000001000000012  0.4999998255701144  0.6981831756708559
  0.5000001744298856  0.9999998999999988  0.6189099054025107
  0.5000001744298856  0.4999998255701144  0.3810900945974893
  0.5000001744298856  0.4999998255701144  0.4603633648658274
  0.5000001744298856  0.4999998255701144  0.5396366351341726
  0.5000001744298856  0.4999998255701144  0.6189099054025107
  0.5000001744298856  0.4999998255701144  0.6981831756708559
  0.0000001000000012  0.9999998999999988  0.3810900709962866
  0.0000001000000012  0.9999998999999988  0.4603633412646317
  0.0000001000000012  0.9999998999999988  0.5396366115329769
  0.0000001000000012  0.9999998999999988  0.6189098818013150
  0.0000001000000012  0.9999998999999988  0.6981831520696602
 
  0.00000000E+00  0.00000000E+00  0.00000000E+00
  0.00000000E+00  0.00000000E+00  0.00000000E+00
  0.00000000E+00  0.00000000E+00  0.00000000E+00
  0.00000000E+00  0.00000000E+00  0.00000000E+00
  0.00000000E+00  0.00000000E+00  0.00000000E+00
  0.00000000E+00  0.00000000E+00  0.00000000E+00
  0.00000000E+00  0.00000000E+00  0.00000000E+00
  0.00000000E+00  0.00000000E+00  0.00000000E+00
  0.00000000E+00  0.00000000E+00  0.00000000E+00
  0.00000000E+00  0.00000000E+00  0.00000000E+00
  0.00000000E+00  0.00000000E+00  0.00000000E+00
  0.00000000E+00  0.00000000E+00  0.00000000E+00
  0.00000000E+00  0.00000000E+00  0.00000000E+00
  0.00000000E+00  0.00000000E+00  0.00000000E+00
  0.00000000E+00  0.00000000E+00  0.00000000E+00
  0.00000000E+00  0.00000000E+00  0.00000000E+00
  0.00000000E+00  0.00000000E+00  0.00000000E+00
  0.00000000E+00  0.00000000E+00  0.00000000E+00
  0.00000000E+00  0.00000000E+00  0.00000000E+00
  0.00000000E+00  0.00000000E+00  0.00000000E+00
  0.00000000E+00  0.00000000E+00  0.00000000E+00
  0.00000000E+00  0.00000000E+00  0.00000000E+00
  0.00000000E+00  0.00000000E+00  0.00000000E+00
  0.00000000E+00  0.00000000E+00  0.00000000E+00
  0.00000000E+00  0.00000000E+00  0.00000000E+00
