Na  O Cl 
 1.0000000000000000
    -3.1518425247742479   -3.1518425247742479    0.0000000000000000
     4.4573784449999989   -4.4573784449999989    0.0000000000000000
    14.0570052598939519  -14.0570052598939519   19.8796074848919666
 Na  O   Cl 
  15   5   5
Cartesian
  4.8954073199566368 -8.0472509442819309  6.0000000000000009
  7.5856735940661082 -7.5856742244346131  7.5759214969783946
  7.1240968742187913 -10.2759404985440845  6.0000000000000009
  6.0097520970877145 -9.1615957214130077  7.5759214969783946
  8.7000183711971850 -8.7000190015656891  9.1518429939567874
  8.2384416513498699 -11.3902852756751614  7.5759214969783946
  7.1240968742187913 -10.2759404985440845  9.1518429939567874
  9.8143631483282618 -9.8143637786967677 10.7277644909351810
  9.3527864284809468 -12.5046300528062382  9.1518429939567874
  8.2384416513498682 -11.3902852756751614 10.7277644909351810
 10.9287079254593387 -10.9287085558278445 12.3036859879135747
 10.4671312056120236 -13.6189748299373150 10.7277644909351810
  9.3527864284809450 -12.5046300528062382 12.3036859879135747
 12.0430527025904155 -12.0430533329589213 13.8796074848919684
 11.5814759827431004 -14.7333196070683918 12.3036859879135747
  6.0097520970877145 -9.1615957214130077  7.5759214969783946
  7.1240968742187913 -10.2759404985440845  9.1518429939567874
  8.2384416513498682 -11.3902852756751614 10.7277644909351810
  9.3527864284809468 -12.5046300528062382 12.3036859879135747
 10.4671312056120236 -13.6189748299373150 13.8796074848919684
  9.8143628165661081 -9.8143634469346122  7.5759210277958555
 10.9287075936971849 -10.9287082240656890  9.1518425247742492
 12.0430523708282617 -12.0430530011967658 10.7277640217526411
 13.1573971479593403 -13.1573977783278444 12.3036855187310366
 14.2717419250904172 -14.2717425554589212 13.8796070157094285
