Cl Na  O                                
   1.00000000000000     
   -17.4849042799999985  -26.3385864100000013    0.0000000000000000
    -7.0078362399999996  -24.7611821300000017    0.0000000000000000
     0.0000000000000000    0.0000000000000000   30.3503805000000000
   Cl   Na   O 
    36   204    36
Direct
  0.8593371199999993  0.1903461300000018  0.3082599600000009
  0.5730056599999998  0.5914570500000025  0.4190569299999964
  0.4386599799999971  0.3799355900000023  0.0463396700000018
  0.1252391299999971  0.8183938100000034  0.1991722300000021
  0.0701434500000033  0.0947837800000002  0.3083235000000002
  0.8058269799999991  0.4660899799999996  0.4185414499999993
  0.6057710500000013  0.3443241900000018  0.0449312699999993
  0.3666140600000034  0.6793145299999992  0.1992333800000026
  0.3028549900000002  0.9703387600000042  0.3063082399999999
  0.0355238799999995  0.3449395299999978  0.4184875899999980
  0.8838581099999985  0.1555511700000025  0.0489542600000021
  0.5742443999999978  0.5899140399999965  0.1987149300000013
  0.7479970799999975  0.7475867300000019  0.3075768100000005
  0.4852725699999993  0.1147574399999982  0.4201025200000004
  0.5336942599999972  0.8480960600000031  0.3081748500000003
  0.2422323300000002  0.2555889400000027  0.4195425799999981
  0.0529170900000011  0.1189311199999992  0.0444142999999997
  0.8054769399999984  0.4665387200000026  0.1940234599999968
  0.9783273099999974  0.6256790199999998  0.3087945700000034
  0.6828975000000028  0.0379850099999999  0.4202166299999988
  0.5461373199999997  0.8309039900000030  0.0411856500000027
  0.2424454699999998  0.2568511699999974  0.1987834800000030
  0.3038029300000034  0.9699403999999987  0.0782236800000007
  0.0337034699999990  0.3477215300000012  0.1985055800000026
  0.1869631400000031  0.5329381100000035  0.3091098200000033
  0.9257290299999994  0.8977311200000031  0.4203995900000024
  0.7220656800000000  0.7841194200000032  0.0495060399999971
  0.4840145800000002  0.1172098899999980  0.1987840099999971
  0.4206775500000006  0.4049136599999983  0.3091865700000014
  0.1226459299999973  0.8224156300000018  0.4206005300000015
  0.9992421399999998  0.5973771199999973  0.0446344100000005
  0.6851114600000017  0.0356211599999980  0.1993965599999967
  0.6292409699999979  0.3125634100000028  0.3091218599999976
  0.3709017400000008  0.6740363500000015  0.4200663100000028
  0.1651663700000015  0.5633917600000018  0.0455627999999990
  0.9227484399999994  0.9015872900000019  0.1996947499999990
  0.4837223999999978  0.0070518699999980  0.0495624599999971
  0.2437973199999988  0.3626858800000008  0.1649923399999977
  0.9451258400000029  0.7659695899999974  0.2754046900000020
  0.6852865800000032  0.1395612399999990  0.3879236300000031
  0.7333886799999974  0.8802048499999984  0.0506802299999976
  0.5133319600000021  0.0769316599999996  0.1066860199999979
  0.4441750900000017  0.2635820300000020  0.1647738200000006
  0.1689765200000011  0.5583605899999995  0.2204002599999981
  0.1792406900000003  0.6497273399999983  0.2758918800000032
  0.9357058699999996  0.8844335799999996  0.3312954700000006
  0.8948741800000022  0.0353850799999975  0.3886812200000023
  0.6163835799999973  0.3300137299999975  0.4499401899999995
  0.6502718699999974  0.0845326099999966  0.1074364199999991
  0.4389655900000022  0.3793128100000018  0.2205225499999983
  0.1096697300000002  0.8404274900000033  0.3316752699999981
  0.8692244100000011  0.1774326299999984  0.4495604099999966
  0.6783511300000029  0.1560958199999973  0.0501617500000009
  0.3646003699999980  0.5747467799999981  0.1651201199999974
  0.1037776800000003  0.9536459700000037  0.2752497000000034
  0.8120185300000031  0.3529672499999990  0.3851665700000027
  0.6092605199999994  0.4511797600000023  0.0455777700000013
  0.3987502900000024  0.6342750299999977  0.1067712500000013
  0.8700235900000024  0.0634934799999982  0.0522819199999986
  0.3375811700000000  0.8145903400000023  0.1656853699999985
  0.0580178800000013  0.1116891799999991  0.2194539899999981
  0.6065337599999978  0.4505525800000001  0.1636302900000004
  0.0620953099999966  0.2091029600000027  0.2721285100000017
  0.8054134400000024  0.4664865299999974  0.3285494300000025
  0.3136788300000006  0.8503662700000021  0.2753281600000008
  0.7963023000000007  0.5818032299999985  0.3861766899999992
  0.5415262100000007  0.8368602199999984  0.4513965299999967
  0.0425760400000001  0.2338985700000009  0.3843413900000030
  0.8150525499999972  0.3406038600000016  0.0478093299999998
  0.5500494599999968  0.6212875300000036  0.1076950300000021
  0.1206858400000002  0.9361430100000021  0.0507708000000022
  0.5625698099999994  0.7080513900000014  0.1606349600000030
  0.3050687400000029  0.9673281500000002  0.2163710100000031
  0.8128157800000011  0.3513465999999994  0.1622895699999987
  0.2903678099999993  0.0914669699999990  0.2739663099999987
  0.0411498400000028  0.3378704599999978  0.3295416799999984
  0.5440436700000006  0.7315049299999998  0.2730259699999991
  0.0100495800000004  0.4768195300000002  0.3862529600000002
  0.7398244399999996  0.7583929500000011  0.4489190999999977
  0.2678817400000000  0.1236134500000006  0.3871599799999998
  0.5492734700000028  0.7194210099999978  0.0458199799999974
  0.2718861399999994  0.1209476900000013  0.1642829800000030
  0.9882635100000030  0.5079896800000014  0.2743818699999991
  0.7143119699999971  0.9003496699999971  0.3881520600000030
  0.0586312499999977  0.2214645700000020  0.0438668099999973
  0.8123651499999980  0.4569269200000008  0.1003223900000023
  0.3175029399999971  0.8415062300000002  0.0535234600000010
  0.7947564899999975  0.5842687499999997  0.1625871299999986
  0.5464733900000027  0.8303413400000039  0.2193404499999971
  0.0495210899999989  0.2251086699999973  0.1599537100000035
  0.5033272200000027  0.9856776800000020  0.2740339500000033
  0.2343242600000011  0.2672282899999985  0.3300370099999981
  0.7729993399999984  0.6162001200000020  0.2744047699999967
  0.2444357899999972  0.3576710800000029  0.3875117099999983
  0.9927351999999985  0.6047633599999998  0.4502974999999978
  0.4822244599999976  0.0136611200000019  0.3869677400000029
  0.7858143400000017  0.6037264599999972  0.0492846699999987
  0.4807884200000032  0.0144722900000005  0.1638272000000001
  0.2203979000000018  0.3925164300000006  0.2756599000000008
  0.9234718599999994  0.7953754300000000  0.3874626899999996
  0.2844486099999983  0.1035909900000007  0.0518643799999978
  0.0540077900000000  0.3218313300000020  0.1075885200000002
  0.0033039500000029  0.4851178799999971  0.1639380900000020
  0.7362179900000001  0.7641356800000025  0.2183984899999984
  0.7364201899999969  0.8684872299999995  0.2751185099999987
  0.4975516700000000  0.0980258499999991  0.3312041000000008
  0.4513934800000001  0.2561410100000003  0.3875109299999977
  0.1752551100000019  0.5486454300000005  0.4497548900000012
  0.9935900999999987  0.4933645500000026  0.0462406799999968
  0.7184790100000029  0.8971480499999984  0.1649886599999988
  0.4281229400000015  0.2885346699999971  0.2757562800000031
  0.1570448299999967  0.6804873600000008  0.3878332000000029
  0.2082052900000022  0.3050121599999969  0.1064599700000031
  0.9942075299999971  0.6039038300000001  0.2200359699999979
  0.6722741800000023  0.0528748799999974  0.3309224799999981
  0.4337920800000035  0.3858819299999965  0.4506194900000011
  0.9259747899999979  0.7864373800000024  0.0497195000000019
  0.2348523699999987  0.3786045000000016  0.0502341400000006
  0.6851454099999970  0.1432976099999976  0.1650012699999976
  0.9223380700000021  0.7950301799999977  0.1647833600000013
  0.3863301299999975  0.5466109299999999  0.2757234800000035
  0.6621916100000007  0.1726767700000025  0.2758041399999982
  0.1290132900000032  0.9199339500000008  0.3885670900000022
  0.3642305899999982  0.5770041999999975  0.3875541000000027
  0.1712152200000006  0.6652074300000024  0.0494703199999975
  0.9565600900000035  0.8545258400000009  0.1074612299999984
  0.4329114299999972  0.2776749300000034  0.0497891899999985
  0.8890858600000016  0.0400345199999990  0.1656971700000014
  0.6130264199999971  0.3348213000000015  0.2204239000000001
  0.1640776699999975  0.6736834599999995  0.1646327799999980
  0.6183163600000015  0.4320798700000026  0.2742765400000025
  0.3760746700000013  0.6666507699999968  0.3307163699999975
  0.8704698000000022  0.0704074900000009  0.2758909499999973
  0.3412429899999978  0.8104356999999993  0.3893714000000017
  0.0578786199999968  0.1128882000000004  0.4513466900000012
  0.6012405000000030  0.4568194599999984  0.3859061100000005
  0.3692011199999996  0.5646825099999973  0.0500487899999982
  0.0933455899999984  0.8625004100000027  0.1072234100000031
  0.1282179600000006  0.9221551999999988  0.1646349600000008
  0.8750534999999999  0.1684876899999992  0.2190606400000021
  0.8302228299999967  0.3256342199999978  0.2740117900000030
  0.5596319400000027  0.6091359300000008  0.3302440200000021
  0.5693719000000002  0.6990450500000023  0.3859517400000030
  0.3033480699999984  0.9697643200000030  0.4480139799999989
  0.9588592500000033  0.9858776800000015  0.5289669000000004
  0.8743398100000022  0.8206520299999980  0.5676546500000015
  0.9166623600000037  0.9032834200000011  0.5962348899999981
  0.8335124099999973  0.7365949599999979  0.6445527699999971
  0.8750572300000030  0.8200374400000001  0.6851510300000001
  0.7917610299999964  0.6533210600000032  0.7219046399999982
  0.8335414800000009  0.7364315499999989  0.7655521499999978
  0.7502269200000029  0.5696693699999997  0.8021337599999967
  0.7912503599999994  0.6534045599999985  0.8431228099999970
  0.7081427199999979  0.4867009800000019  0.8911629500000018
  0.7502306599999997  0.5697289599999991  0.9197504199999997
  0.6671787900000012  0.4025397999999996  0.9588142899999994
  0.0838591899999983  0.2358777999999973  0.5289670200000032
  0.9993398200000030  0.0706520399999988  0.5676546299999998
  0.0416622899999979  0.1532835599999984  0.5962349400000022
  0.9585123800000019  0.9865950100000020  0.6445527599999963
  0.0000571200000010  0.0700376400000025  0.6851510199999993
  0.9167610699999997  0.9033209800000037  0.7219046399999982
  0.9585414900000018  0.9864315800000014  0.7655521699999994
  0.8752270199999970  0.8196691899999990  0.8021337699999975
  0.9162504199999972  0.9034044699999981  0.8431228399999995
  0.8331427600000012  0.7367009000000024  0.8911629500000018
  0.8752307500000001  0.8197288100000009  0.9197504500000022
  0.7921787599999988  0.6525398699999982  0.9588143100000011
  0.4588591899999983  0.9858777900000035  0.5289669499999974
  0.3743397399999964  0.8206521600000016  0.5676546500000015
  0.4166622899999979  0.9032835599999984  0.5962349400000022
  0.3335123399999986  0.7365950900000016  0.6445527699999971
  0.3750570899999985  0.8200376799999987  0.6851510300000001
  0.2917610299999964  0.6533210699999970  0.7219046399999982
  0.3335414200000031  0.7364316999999971  0.7655521599999986
  0.2502270000000024  0.5696692200000015  0.8021337799999984
  0.2912503800000010  0.6534045300000031  0.8431228500000003
  0.2081427800000029  0.4867008499999983  0.8911629799999972
  0.2502306900000022  0.5697288699999987  0.9197504799999976
  0.1671787699999996  0.4025398300000020  0.9588143300000027
  0.2088592300000016  0.4858777000000032  0.5289669100000012
  0.1243397599999980  0.3206521299999991  0.5676546799999969
  0.1666623500000028  0.4032834500000035  0.5962349300000014
  0.0835123100000033  0.2365951299999978  0.6445528200000012
  0.1250571500000035  0.3200375799999975  0.6851510400000009
  0.0417609400000032  0.1533212100000014  0.7219046399999982
  0.0835414100000023  0.2364317099999980  0.7655521599999986
  0.0002269299999966  0.0696693499999981  0.8021337899999992
  0.0412503299999969  0.1534046399999980  0.8431227800000016
  0.9581427399999995  0.9867009200000041  0.8911629999999988
  0.0002306800000014  0.0697289000000012  0.9197504799999976
  0.9171787699999996  0.9025398400000029  0.9588143499999973
  0.5838592100000000  0.2358777199999977  0.5289668899999995
  0.4993398100000022  0.0706520399999988  0.5676546600000023
  0.5416623799999982  0.1532833899999986  0.5962348999999989
  0.4585123499999995  0.9865950599999991  0.6445527999999996
  0.5000572100000014  0.0700374700000026  0.6851510400000009
  0.4167609699999986  0.9033211699999981  0.7219046399999982
  0.4585414700000001  0.9864316099999968  0.7655521499999978
  0.3752269000000013  0.8196694199999968  0.8021337699999975
  0.4162503399999977  0.9034046299999972  0.8431228000000033
  0.3331427099999971  0.7367009700000011  0.8911629799999972
  0.3752307000000030  0.8197289100000020  0.9197504500000022
  0.2921787900000012  0.6525398100000004  0.9588143499999973
  0.3338592400000024  0.7358776900000024  0.5289669499999974
  0.2493398399999975  0.5706519800000009  0.5676546199999990
  0.2916623200000004  0.6532834799999989  0.5962348899999981
  0.2085124399999998  0.4865949000000001  0.6445527699999971
  0.2500571799999989  0.5700375099999988  0.6851510199999993
  0.1667610900000014  0.4033209600000021  0.7219046399999982
  0.2085415199999971  0.4864315000000019  0.7655521599999986
  0.1252269299999966  0.3196693499999981  0.8021337599999967
  0.1662504000000027  0.4034045000000006  0.8431228299999987
  0.0831426900000025  0.2367010099999973  0.8911629300000001
  0.1252306499999989  0.3197289499999982  0.9197504199999997
  0.0421787699999996  0.1525398599999974  0.9588142300000015
  0.7088592300000016  0.4858777199999977  0.5289670299999969
  0.6243398200000030  0.3206520299999980  0.5676546099999982
  0.6666623099999995  0.4032835200000022  0.5962349099999997
  0.5835124199999981  0.2365949300000025  0.6445527500000026
  0.6250571799999989  0.3200375400000013  0.6851510099999985
  0.5417610599999989  0.1533209799999966  0.7219046399999982
  0.5835415399999988  0.2364315000000019  0.7655521699999994
  0.5002269499999983  0.0696692799999994  0.8021337699999975
  0.5412504199999972  0.1534044599999973  0.8431228299999987
  0.4581427299999987  0.9867009600000003  0.8911629400000010
  0.5002306900000022  0.0697288799999995  0.9197504500000022
  0.4171787399999971  0.9025399100000016  0.9588142599999969
  0.8338592300000016  0.7358777299999986  0.5289669000000004
  0.7493397699999989  0.5706521299999991  0.5676546600000023
  0.7916622999999987  0.6532835300000031  0.5962349400000022
  0.7085123299999978  0.4865951199999969  0.6445528200000012
  0.7500570899999985  0.5700376699999978  0.6851510400000009
  0.6667609799999994  0.4033211499999965  0.7219046399999982
  0.7085414299999968  0.4864316999999971  0.7655521599999986
  0.6252269200000029  0.3196693499999981  0.8021337899999992
  0.6662503599999994  0.4034045900000010  0.8431228199999978
  0.5831427600000012  0.2367008900000016  0.8911629899999980
  0.6252306900000022  0.3197288799999995  0.9197504899999984
  0.5421788100000029  0.1525397899999987  0.9588143200000019
  0.3601485800000006  0.1916372000000024  0.1011558800000003
  0.0832085199999995  0.5790908800000025  0.2102938700000010
  0.8039542799999992  0.9687690499999988  0.3229076499999977
  0.5239731899999995  0.3587545399999996  0.4303428699999969
  0.5821362000000008  0.0808196899999984  0.1018398100000013
  0.3039915000000022  0.4688631599999979  0.2105669000000034
  0.0245347400000000  0.8601032600000025  0.3230882000000008
  0.7455152400000031  0.2497064900000012  0.4303586500000023
  0.4694043100000016  0.6335648599999999  0.1019433800000016
  0.1893087400000013  0.0273150800000010  0.2096682399999992
  0.9178979200000015  0.4103472500000009  0.3210828599999971
  0.6407364800000011  0.7963687900000025  0.4298532700000024
  0.6888982500000012  0.5274472700000032  0.0989092599999992
  0.4184447199999966  0.9105604900000017  0.2092728499999978
  0.1400779399999976  0.2992347799999990  0.3216356499999975
  0.8636685399999990  0.6861800300000027  0.4300374800000029
  0.9197964100000036  0.4090055699999979  0.0987134299999965
  0.6404672500000004  0.7977006400000022  0.2088142500000032
  0.3632674300000005  0.1868191599999989  0.3221949100000003
  0.0837178900000026  0.5766535300000015  0.4300110699999991
  0.1367204000000015  0.3068398899999991  0.1015094799999972
  0.8616795300000035  0.6895040499999965  0.2103624200000027
  0.5832301299999969  0.0774835200000012  0.3226873500000025
  0.3043580399999968  0.4680601000000024  0.4301097900000030
  0.8030241800000013  0.9702603499999967  0.1017714299999994
  0.5245396400000004  0.3588387900000001  0.2105663800000031
  0.2446834599999974  0.7507462499999988  0.3228094600000020
  0.9674010000000024  0.1410288599999987  0.4301852899999972
  0.0238355799999965  0.8591832299999993  0.1022564700000004
  0.7464292000000015  0.2480009000000010  0.2106040399999998
  0.4665751799999995  0.6395792200000017  0.3222311299999987
  0.1888264099999972  0.0282807299999988  0.4301193299999966
  0.2458262899999966  0.7490149599999967  0.1016589500000009
  0.9670368100000033  0.1397685100000032  0.2093496000000030
  0.6884303300000028  0.5288761999999991  0.3213457299999973
  0.4188306599999976  0.9099343600000012  0.4300515500000017
 
  0.00000000E+00  0.00000000E+00  0.00000000E+00
  0.00000000E+00  0.00000000E+00  0.00000000E+00
  0.00000000E+00  0.00000000E+00  0.00000000E+00
  0.00000000E+00  0.00000000E+00  0.00000000E+00
  0.00000000E+00  0.00000000E+00  0.00000000E+00
  0.00000000E+00  0.00000000E+00  0.00000000E+00
  0.00000000E+00  0.00000000E+00  0.00000000E+00
  0.00000000E+00  0.00000000E+00  0.00000000E+00
  0.00000000E+00  0.00000000E+00  0.00000000E+00
  0.00000000E+00  0.00000000E+00  0.00000000E+00
  0.00000000E+00  0.00000000E+00  0.00000000E+00
  0.00000000E+00  0.00000000E+00  0.00000000E+00
  0.00000000E+00  0.00000000E+00  0.00000000E+00
  0.00000000E+00  0.00000000E+00  0.00000000E+00
  0.00000000E+00  0.00000000E+00  0.00000000E+00
  0.00000000E+00  0.00000000E+00  0.00000000E+00
  0.00000000E+00  0.00000000E+00  0.00000000E+00
  0.00000000E+00  0.00000000E+00  0.00000000E+00
  0.00000000E+00  0.00000000E+00  0.00000000E+00
  0.00000000E+00  0.00000000E+00  0.00000000E+00
  0.00000000E+00  0.00000000E+00  0.00000000E+00
  0.00000000E+00  0.00000000E+00  0.00000000E+00
  0.00000000E+00  0.00000000E+00  0.00000000E+00
  0.00000000E+00  0.00000000E+00  0.00000000E+00
  0.00000000E+00  0.00000000E+00  0.00000000E+00
  0.00000000E+00  0.00000000E+00  0.00000000E+00
  0.00000000E+00  0.00000000E+00  0.00000000E+00
  0.00000000E+00  0.00000000E+00  0.00000000E+00
  0.00000000E+00  0.00000000E+00  0.00000000E+00
  0.00000000E+00  0.00000000E+00  0.00000000E+00
  0.00000000E+00  0.00000000E+00  0.00000000E+00
  0.00000000E+00  0.00000000E+00  0.00000000E+00
  0.00000000E+00  0.00000000E+00  0.00000000E+00
  0.00000000E+00  0.00000000E+00  0.00000000E+00
  0.00000000E+00  0.00000000E+00  0.00000000E+00
  0.00000000E+00  0.00000000E+00  0.00000000E+00
  0.00000000E+00  0.00000000E+00  0.00000000E+00
  0.00000000E+00  0.00000000E+00  0.00000000E+00
  0.00000000E+00  0.00000000E+00  0.00000000E+00
  0.00000000E+00  0.00000000E+00  0.00000000E+00
  0.00000000E+00  0.00000000E+00  0.00000000E+00
  0.00000000E+00  0.00000000E+00  0.00000000E+00
  0.00000000E+00  0.00000000E+00  0.00000000E+00
  0.00000000E+00  0.00000000E+00  0.00000000E+00
  0.00000000E+00  0.00000000E+00  0.00000000E+00
  0.00000000E+00  0.00000000E+00  0.00000000E+00
  0.00000000E+00  0.00000000E+00  0.00000000E+00
  0.00000000E+00  0.00000000E+00  0.00000000E+00
  0.00000000E+00  0.00000000E+00  0.00000000E+00
  0.00000000E+00  0.00000000E+00  0.00000000E+00
  0.00000000E+00  0.00000000E+00  0.00000000E+00
  0.00000000E+00  0.00000000E+00  0.00000000E+00
  0.00000000E+00  0.00000000E+00  0.00000000E+00
  0.00000000E+00  0.00000000E+00  0.00000000E+00
  0.00000000E+00  0.00000000E+00  0.00000000E+00
  0.00000000E+00  0.00000000E+00  0.00000000E+00
  0.00000000E+00  0.00000000E+00  0.00000000E+00
  0.00000000E+00  0.00000000E+00  0.00000000E+00
  0.00000000E+00  0.00000000E+00  0.00000000E+00
  0.00000000E+00  0.00000000E+00  0.00000000E+00
  0.00000000E+00  0.00000000E+00  0.00000000E+00
  0.00000000E+00  0.00000000E+00  0.00000000E+00
  0.00000000E+00  0.00000000E+00  0.00000000E+00
  0.00000000E+00  0.00000000E+00  0.00000000E+00
  0.00000000E+00  0.00000000E+00  0.00000000E+00
  0.00000000E+00  0.00000000E+00  0.00000000E+00
  0.00000000E+00  0.00000000E+00  0.00000000E+00
  0.00000000E+00  0.00000000E+00  0.00000000E+00
  0.00000000E+00  0.00000000E+00  0.00000000E+00
  0.00000000E+00  0.00000000E+00  0.00000000E+00
  0.00000000E+00  0.00000000E+00  0.00000000E+00
  0.00000000E+00  0.00000000E+00  0.00000000E+00
  0.00000000E+00  0.00000000E+00  0.00000000E+00
  0.00000000E+00  0.00000000E+00  0.00000000E+00
  0.00000000E+00  0.00000000E+00  0.00000000E+00
  0.00000000E+00  0.00000000E+00  0.00000000E+00
  0.00000000E+00  0.00000000E+00  0.00000000E+00
  0.00000000E+00  0.00000000E+00  0.00000000E+00
  0.00000000E+00  0.00000000E+00  0.00000000E+00
  0.00000000E+00  0.00000000E+00  0.00000000E+00
  0.00000000E+00  0.00000000E+00  0.00000000E+00
  0.00000000E+00  0.00000000E+00  0.00000000E+00
  0.00000000E+00  0.00000000E+00  0.00000000E+00
  0.00000000E+00  0.00000000E+00  0.00000000E+00
  0.00000000E+00  0.00000000E+00  0.00000000E+00
  0.00000000E+00  0.00000000E+00  0.00000000E+00
  0.00000000E+00  0.00000000E+00  0.00000000E+00
  0.00000000E+00  0.00000000E+00  0.00000000E+00
  0.00000000E+00  0.00000000E+00  0.00000000E+00
  0.00000000E+00  0.00000000E+00  0.00000000E+00
  0.00000000E+00  0.00000000E+00  0.00000000E+00
  0.00000000E+00  0.00000000E+00  0.00000000E+00
  0.00000000E+00  0.00000000E+00  0.00000000E+00
  0.00000000E+00  0.00000000E+00  0.00000000E+00
  0.00000000E+00  0.00000000E+00  0.00000000E+00
  0.00000000E+00  0.00000000E+00  0.00000000E+00
  0.00000000E+00  0.00000000E+00  0.00000000E+00
  0.00000000E+00  0.00000000E+00  0.00000000E+00
  0.00000000E+00  0.00000000E+00  0.00000000E+00
  0.00000000E+00  0.00000000E+00  0.00000000E+00
  0.00000000E+00  0.00000000E+00  0.00000000E+00
  0.00000000E+00  0.00000000E+00  0.00000000E+00
  0.00000000E+00  0.00000000E+00  0.00000000E+00
  0.00000000E+00  0.00000000E+00  0.00000000E+00
  0.00000000E+00  0.00000000E+00  0.00000000E+00
  0.00000000E+00  0.00000000E+00  0.00000000E+00
  0.00000000E+00  0.00000000E+00  0.00000000E+00
  0.00000000E+00  0.00000000E+00  0.00000000E+00
  0.00000000E+00  0.00000000E+00  0.00000000E+00
  0.00000000E+00  0.00000000E+00  0.00000000E+00
  0.00000000E+00  0.00000000E+00  0.00000000E+00
  0.00000000E+00  0.00000000E+00  0.00000000E+00
  0.00000000E+00  0.00000000E+00  0.00000000E+00
  0.00000000E+00  0.00000000E+00  0.00000000E+00
  0.00000000E+00  0.00000000E+00  0.00000000E+00
  0.00000000E+00  0.00000000E+00  0.00000000E+00
  0.00000000E+00  0.00000000E+00  0.00000000E+00
  0.00000000E+00  0.00000000E+00  0.00000000E+00
  0.00000000E+00  0.00000000E+00  0.00000000E+00
  0.00000000E+00  0.00000000E+00  0.00000000E+00
  0.00000000E+00  0.00000000E+00  0.00000000E+00
  0.00000000E+00  0.00000000E+00  0.00000000E+00
  0.00000000E+00  0.00000000E+00  0.00000000E+00
  0.00000000E+00  0.00000000E+00  0.00000000E+00
  0.00000000E+00  0.00000000E+00  0.00000000E+00
  0.00000000E+00  0.00000000E+00  0.00000000E+00
  0.00000000E+00  0.00000000E+00  0.00000000E+00
  0.00000000E+00  0.00000000E+00  0.00000000E+00
  0.00000000E+00  0.00000000E+00  0.00000000E+00
  0.00000000E+00  0.00000000E+00  0.00000000E+00
  0.00000000E+00  0.00000000E+00  0.00000000E+00
  0.00000000E+00  0.00000000E+00  0.00000000E+00
  0.00000000E+00  0.00000000E+00  0.00000000E+00
  0.00000000E+00  0.00000000E+00  0.00000000E+00
  0.00000000E+00  0.00000000E+00  0.00000000E+00
  0.00000000E+00  0.00000000E+00  0.00000000E+00
  0.00000000E+00  0.00000000E+00  0.00000000E+00
  0.00000000E+00  0.00000000E+00  0.00000000E+00
  0.00000000E+00  0.00000000E+00  0.00000000E+00
  0.00000000E+00  0.00000000E+00  0.00000000E+00
  0.00000000E+00  0.00000000E+00  0.00000000E+00
  0.00000000E+00  0.00000000E+00  0.00000000E+00
  0.00000000E+00  0.00000000E+00  0.00000000E+00
  0.00000000E+00  0.00000000E+00  0.00000000E+00
  0.00000000E+00  0.00000000E+00  0.00000000E+00
  0.00000000E+00  0.00000000E+00  0.00000000E+00
  0.00000000E+00  0.00000000E+00  0.00000000E+00
  0.00000000E+00  0.00000000E+00  0.00000000E+00
  0.00000000E+00  0.00000000E+00  0.00000000E+00
  0.00000000E+00  0.00000000E+00  0.00000000E+00
  0.00000000E+00  0.00000000E+00  0.00000000E+00
  0.00000000E+00  0.00000000E+00  0.00000000E+00
  0.00000000E+00  0.00000000E+00  0.00000000E+00
  0.00000000E+00  0.00000000E+00  0.00000000E+00
  0.00000000E+00  0.00000000E+00  0.00000000E+00
  0.00000000E+00  0.00000000E+00  0.00000000E+00
  0.00000000E+00  0.00000000E+00  0.00000000E+00
  0.00000000E+00  0.00000000E+00  0.00000000E+00
  0.00000000E+00  0.00000000E+00  0.00000000E+00
  0.00000000E+00  0.00000000E+00  0.00000000E+00
  0.00000000E+00  0.00000000E+00  0.00000000E+00
  0.00000000E+00  0.00000000E+00  0.00000000E+00
  0.00000000E+00  0.00000000E+00  0.00000000E+00
  0.00000000E+00  0.00000000E+00  0.00000000E+00
  0.00000000E+00  0.00000000E+00  0.00000000E+00
  0.00000000E+00  0.00000000E+00  0.00000000E+00
  0.00000000E+00  0.00000000E+00  0.00000000E+00
  0.00000000E+00  0.00000000E+00  0.00000000E+00
  0.00000000E+00  0.00000000E+00  0.00000000E+00
  0.00000000E+00  0.00000000E+00  0.00000000E+00
  0.00000000E+00  0.00000000E+00  0.00000000E+00
  0.00000000E+00  0.00000000E+00  0.00000000E+00
  0.00000000E+00  0.00000000E+00  0.00000000E+00
  0.00000000E+00  0.00000000E+00  0.00000000E+00
  0.00000000E+00  0.00000000E+00  0.00000000E+00
  0.00000000E+00  0.00000000E+00  0.00000000E+00
  0.00000000E+00  0.00000000E+00  0.00000000E+00
  0.00000000E+00  0.00000000E+00  0.00000000E+00
  0.00000000E+00  0.00000000E+00  0.00000000E+00
  0.00000000E+00  0.00000000E+00  0.00000000E+00
  0.00000000E+00  0.00000000E+00  0.00000000E+00
  0.00000000E+00  0.00000000E+00  0.00000000E+00
  0.00000000E+00  0.00000000E+00  0.00000000E+00
  0.00000000E+00  0.00000000E+00  0.00000000E+00
  0.00000000E+00  0.00000000E+00  0.00000000E+00
  0.00000000E+00  0.00000000E+00  0.00000000E+00
  0.00000000E+00  0.00000000E+00  0.00000000E+00
  0.00000000E+00  0.00000000E+00  0.00000000E+00
  0.00000000E+00  0.00000000E+00  0.00000000E+00
  0.00000000E+00  0.00000000E+00  0.00000000E+00
  0.00000000E+00  0.00000000E+00  0.00000000E+00
  0.00000000E+00  0.00000000E+00  0.00000000E+00
  0.00000000E+00  0.00000000E+00  0.00000000E+00
  0.00000000E+00  0.00000000E+00  0.00000000E+00
  0.00000000E+00  0.00000000E+00  0.00000000E+00
  0.00000000E+00  0.00000000E+00  0.00000000E+00
  0.00000000E+00  0.00000000E+00  0.00000000E+00
  0.00000000E+00  0.00000000E+00  0.00000000E+00
  0.00000000E+00  0.00000000E+00  0.00000000E+00
  0.00000000E+00  0.00000000E+00  0.00000000E+00
  0.00000000E+00  0.00000000E+00  0.00000000E+00
  0.00000000E+00  0.00000000E+00  0.00000000E+00
  0.00000000E+00  0.00000000E+00  0.00000000E+00
  0.00000000E+00  0.00000000E+00  0.00000000E+00
  0.00000000E+00  0.00000000E+00  0.00000000E+00
  0.00000000E+00  0.00000000E+00  0.00000000E+00
  0.00000000E+00  0.00000000E+00  0.00000000E+00
  0.00000000E+00  0.00000000E+00  0.00000000E+00
  0.00000000E+00  0.00000000E+00  0.00000000E+00
  0.00000000E+00  0.00000000E+00  0.00000000E+00
  0.00000000E+00  0.00000000E+00  0.00000000E+00
  0.00000000E+00  0.00000000E+00  0.00000000E+00
  0.00000000E+00  0.00000000E+00  0.00000000E+00
  0.00000000E+00  0.00000000E+00  0.00000000E+00
  0.00000000E+00  0.00000000E+00  0.00000000E+00
  0.00000000E+00  0.00000000E+00  0.00000000E+00
  0.00000000E+00  0.00000000E+00  0.00000000E+00
  0.00000000E+00  0.00000000E+00  0.00000000E+00
  0.00000000E+00  0.00000000E+00  0.00000000E+00
  0.00000000E+00  0.00000000E+00  0.00000000E+00
  0.00000000E+00  0.00000000E+00  0.00000000E+00
  0.00000000E+00  0.00000000E+00  0.00000000E+00
  0.00000000E+00  0.00000000E+00  0.00000000E+00
  0.00000000E+00  0.00000000E+00  0.00000000E+00
  0.00000000E+00  0.00000000E+00  0.00000000E+00
  0.00000000E+00  0.00000000E+00  0.00000000E+00
  0.00000000E+00  0.00000000E+00  0.00000000E+00
  0.00000000E+00  0.00000000E+00  0.00000000E+00
  0.00000000E+00  0.00000000E+00  0.00000000E+00
  0.00000000E+00  0.00000000E+00  0.00000000E+00
  0.00000000E+00  0.00000000E+00  0.00000000E+00
  0.00000000E+00  0.00000000E+00  0.00000000E+00
  0.00000000E+00  0.00000000E+00  0.00000000E+00
  0.00000000E+00  0.00000000E+00  0.00000000E+00
  0.00000000E+00  0.00000000E+00  0.00000000E+00
  0.00000000E+00  0.00000000E+00  0.00000000E+00
  0.00000000E+00  0.00000000E+00  0.00000000E+00
  0.00000000E+00  0.00000000E+00  0.00000000E+00
  0.00000000E+00  0.00000000E+00  0.00000000E+00
  0.00000000E+00  0.00000000E+00  0.00000000E+00
  0.00000000E+00  0.00000000E+00  0.00000000E+00
  0.00000000E+00  0.00000000E+00  0.00000000E+00
  0.00000000E+00  0.00000000E+00  0.00000000E+00
  0.00000000E+00  0.00000000E+00  0.00000000E+00
  0.00000000E+00  0.00000000E+00  0.00000000E+00
  0.00000000E+00  0.00000000E+00  0.00000000E+00
  0.00000000E+00  0.00000000E+00  0.00000000E+00
  0.00000000E+00  0.00000000E+00  0.00000000E+00
  0.00000000E+00  0.00000000E+00  0.00000000E+00
  0.00000000E+00  0.00000000E+00  0.00000000E+00
  0.00000000E+00  0.00000000E+00  0.00000000E+00
  0.00000000E+00  0.00000000E+00  0.00000000E+00
  0.00000000E+00  0.00000000E+00  0.00000000E+00
  0.00000000E+00  0.00000000E+00  0.00000000E+00
  0.00000000E+00  0.00000000E+00  0.00000000E+00
  0.00000000E+00  0.00000000E+00  0.00000000E+00
  0.00000000E+00  0.00000000E+00  0.00000000E+00
  0.00000000E+00  0.00000000E+00  0.00000000E+00
  0.00000000E+00  0.00000000E+00  0.00000000E+00
  0.00000000E+00  0.00000000E+00  0.00000000E+00
  0.00000000E+00  0.00000000E+00  0.00000000E+00
  0.00000000E+00  0.00000000E+00  0.00000000E+00