Cl Na  O 
 1.0000000000000000
    -8.9073273000000004    8.9073273000000004    0.0000000000000000
   -17.8146546000000008    0.0000000000000000    0.0000000000000000
     0.0000000000000000    0.0000000000000000   44.3302634599999976
 Cl  Na  O  
  32 204  32
Cartesian
 -2.3049202256805481  1.8026087828120101  3.7546797782060990
 -2.3049027673190405  1.8026351485008183  8.3019310274582114
 -2.3049201366072749  1.8026452137806670 12.8150045301879327
 -2.3049236104649218  1.8026415617764739 17.2789445854117645
 -6.7584126768498427  1.8028154328053700  3.7559711187806890
 -6.7585858352925543  1.8026406710437439  8.3019780175374791
 -6.7585902889562037  1.8026415617764739 12.8139539029439327
 -6.7585876167580139  1.8026422743626582 17.2818375784051632
 -11.2122214272115599  1.8026234799020551  3.7547050464562717
 -11.2122450316289051  1.8026413836299282  8.3019319140634806
 -11.2122496634391009  1.8026451247073942 12.8150023136747606
 -11.2122515339778346  1.8026414727032012 17.2789454720170319
 -15.6657217168288785  1.8028148092924592  3.7559720053859582
 -15.6659285449687840  1.8026347031344532  8.3019678215768842
 -15.6658821377935507  1.8026991031108321 12.8137220556660356
 -15.6659149167580143  1.8026415617764739 17.2818358051946248
 -6.7585620527286636  6.2562885550744234  3.7547001701272911
 -6.7585869932451024  6.2563074386082986  8.3019296975503067
 -6.7585871713916497  6.2563108233926732 12.8150049734905700
 -6.7585870823183765  6.2563048554833820 17.2789445854117645
 -11.2120583340486952  6.2564771231933642  3.7559728919912279
 -11.2122648058955097  6.2562986203542721  8.3019700380900563
 -11.2122183987202781  6.2563617733048291 12.8137220556660356
 -11.2122516230511060  6.2563050336299275 17.2818358051946248
 -15.6659129571460074  6.2562761738894759  3.7546855411403488
 -15.6658987054223271  6.2563018269921002  8.3019332439713853
 -15.6659141150985572  6.2563088637806672 12.8150027569773943
 -15.6659142932451019  6.2563040538239250 17.2789450287144000
 -20.1193977480138244  6.2564853179344802  3.7559737785964966
 -20.1195982519513485  6.2562922961518890  8.3019873268928066
 -20.1195446298410019  6.2563628421841058 12.8137238288765758
 -20.1195794574907438  6.2563046773368356 17.2818358051946248
 -4.5317013679882114  4.0294480008936695  3.7882302515005311
 -4.5293695187743435  1.8007143724418460  1.5019908937095665
 -4.5317301386553908  4.0295213081973484  8.3052562405203449
 -4.5537334639182152  1.8024529936575331  6.0470766095916586
 -4.5317570387838364  4.0294844318623264 12.8176772017719358
 -4.5262404637671274  1.8009442705594592 10.5633330252378066
 -4.5317411837412420  4.0294985054394603 17.2966527524534968
 -4.5156859044295388  1.8024327740245623 15.0846009771681100
 -6.7568978967692042  4.0282614558240359  1.5004069733961405
 -8.9853806948842596  4.0295303045979214  3.7893987972453367
 -8.9877051510164669  1.8049055371563150  1.5021398433947919
 -6.7578581957254178  4.0529656608707674  6.0413034793812619
 -8.9854072387196133  4.0294891527457954  8.3039516008667178
 -8.9634138896633644  1.8028104447020821  6.0471032077497338
 -6.7580770487571780  4.0256024404784396 10.5617788062009001
 -8.9854120486763556  4.0294927156767155 12.8194145047969350
 -8.9908495266266399  1.8043941674960222 10.5632651999347136
 -6.7583142508831768  4.0142957464236391 15.0799006393334469
 -8.9854047446679690  4.0294909342112550 17.2995249102230702
 -9.0015012649050714  1.8028704800880841 15.0845943276285901
 -11.2137397702231176  4.0308033398156375  1.5000017947881161
 -13.4390477296686335  4.0295256727877256  3.7882723652508177
 -13.4367106251316599  1.8007296039715293  1.5019767080252591
 -11.2128957118881694  4.0059308753562091  6.0412972731443775
 -13.4390840715640163  4.0293856496025695  8.3053298287576904
 -13.4610596059656675  1.8024566456617259  6.0470854756443497
 -11.2127780460945363  4.0333616132894701 10.5618076208721501
 -13.4390862093225696  4.0294825613235936 12.8176936039694187
 -13.4335543137029045  1.8009338489865181 10.5633600666985181
 -11.2125272157577687  4.0446744534001082 15.0799072888729651
 -13.4390678602283309  4.0294989508058254 17.2966594019930149
 -13.4230116011106233  1.8024325958780161 15.0846049668918223
 -15.6642319663379528  4.0282698287116983  1.5004224889883515
 -17.8927237608535812  4.0293960711755101  3.7894524368641234
 -17.8950409129774037  1.8049045573503120  1.5021482661448493
 -15.6651570813513299  4.0530592768806901  6.0412711182889360
 -17.8927611716282406  4.0295453579810587  8.3039852918669492
 -17.8706280666066526  1.8027765968583422  6.0474591797653172
 -15.6654080898346457  4.0256122385384705 10.5618054043589762
 -17.8927536894733095  4.0294908451379827 12.8194122882837611
 -17.8981807458506523  1.8043964834011199 10.5632802722242900
 -15.6656419962495423  4.0142970825227344 15.0799041857545220
 -17.8927329354006979  4.0294909342112550 17.2995244669204347
 -17.9088338202281818  1.8028721724802710 15.0845969874443995
 -20.1210642198783809  4.0307963921003429  1.5000040113012891
 -20.1202280890647280  4.0059425439549718  6.0413132320392231
 -20.1201173709863923  4.0333633056816574 10.5617739298719187
 -20.1198561190766831  4.0446737408139244 15.0799010826360824
 -8.9853855939142750  8.4831879866886304  3.7882701487376447
 -8.9830458171791090  6.2543940556309856  1.5019758214199901
 -8.9854200652709242  8.4830489433094769  8.3053289421524212
 -9.0073954215260272  6.2561247493253758  6.0470854756443497
 -8.9854207778571098  8.4831474583494160 12.8176936039694187
 -8.9798831815479723  6.2545996367450707 10.5633653863301333
 -8.9854044774481512  8.4831630461721907 17.2966589586903794
 -8.9693469713046206  6.2560963349512893 15.0846054101944560
 -11.2105675146784947  8.4819351711038848  1.5004238188962553
 -13.4390512925995544  8.4830678268433530  3.7894528801667575
 -13.4413755705852154  6.2585690090097694  1.5021491527501185
 -11.2114879978816759  8.5067237285401465  6.0412724481968407
 -13.4390871891285730  8.4832216563858243  8.3039857351695829
 -13.4169570235249953  6.2564424736901669  6.0474653860022025
 -11.2117415004166361  8.4792845286459517 10.5618124972011298
 -13.4390822010252862  8.4831634024652836 12.8194176079153763
 -13.4445173630704726  6.2580639635518596 10.5632820454348284
 -11.2119783462495430  8.4679610888158265 15.0799037424518882
 -13.4390680383748773  8.4831558312370774 17.2995249102230702
 -13.4551688341290845  6.2565364459931825 15.0845996472602071
 -15.6674008370981994  8.4844615563459840  1.5000044546039235
 -17.8926908037425711  8.4831133432858561  3.7882386742505880
 -17.8903620720932572  6.2543789131745759  1.5019904504069317
 -15.6665618559398148  8.4595854398823640  6.0412937267233016
 -17.8927209995821173  8.4831839783913452  8.3052677663888463
 -17.9147272642629538  6.2561146840455280  6.0470690734468695
 -15.6664499799089256  8.4870285590005707 10.5617987548194563
 -17.8927493248829315  8.4831460331770483 12.8176847379167249
 -17.8872143116987097  6.2546072079732751 10.5633680461459409
 -15.6661921127835910  8.4983405974517527 15.0799037424518882
 -17.8927319555946944  8.4831641150514656 17.2966571854798410
 -17.8766751620373512  6.2560970475374731 15.0846054101944560
 -20.1178879560364763  8.4819242150913059  1.5004083033040441
 -22.3463799286986493  8.4831854926369861  3.7893961374295291
 -22.3486974371155611  6.2585696325226801  1.5021385134868881
 -20.1188535993890696  8.5066266386725786  6.0412963865391083
 -22.3464084321460099  8.4831398871212098  8.3039516008667178
 -22.3243879157414931  6.2564742728486289  6.0471191666445794
 -20.1190699583691845  8.4792805203486665 10.5618142704116682
 -22.3464108371243810  8.4831476364959624 12.8194122882837611
 -22.3519582314935477  6.2580218318937302 10.5633201694614041
 -20.1193045773702686  8.4679587729107286 15.0799041857545220
 -22.3463959618877865  8.4831553858707114 17.2995249102230702
 -22.3624965794954491  6.2565343973079033 15.0845943276285901
 -24.5747315218825726  8.4844663663027262  1.5000000215775777
 -24.5738899575992704  8.4595857071021818  6.0412906236048585
 -24.5737729153185498  8.4870245507032873 10.5618071775695146
 -24.5735182548310398  8.4983356984217373 15.0799055156624284
 -2.7452488735794871  1.7503629436071331 22.2489270105052626
 -5.7184968225916144  1.7467238550387181 20.2426048950955852
 -2.7446539531891201  1.7511083978288702 26.3399165592401161
 -5.7143701469267976  1.7518538520506073 24.2097560796443894
 -2.7458092335399300  1.7473956456636841 30.4999943802747389
 -5.7145511438175332  1.7488910968440812 28.4493623933262541
 -2.7474488052760413  1.7466398589422791 34.6258363821418413
 -5.7156269708088265  1.7470278621194670 32.5774284445111491
 -2.7455479816302213  1.7477862319657893 38.8616307364687827
 -5.7170606942110354  1.7487728075375371 36.7361151818783966
 -2.7466841112273359  1.7466814561607700 42.8239149013923139
 -5.7136744846646668  1.7487549928829371 40.8245140700166473
 -5.6918179521557457  4.7131412201108400 22.2580546117516747
 -8.6736748330033233  4.7226286816378886 20.2455355688129259
 -5.6902305773576130  4.7087277285069629 26.3505137087202286
 -8.6559403443490250  4.7267082375412901 24.2367345913808734
 -5.6845824411166834  4.7207641998874532 30.4851472884367176
 -8.6575842806755112  4.7185081520289094 28.4291739480439318
 -5.6901865751607508  4.7113740954477930 34.6436052816445113
 -8.6526088257922780  4.7205595095060993 32.5916349640421714
 -5.6865499806439805  4.7244814947895621 38.8369112949582203
 -8.6554865160230872  4.7099987150393998 36.7204244851267276
 -5.7062343723175237  4.7255141212434513 42.8286422806876885
 -8.6608192438043243  4.7161172472350428 40.8116777989291677
 -8.6833208449563113  1.7502914177689139 22.2484801614495851
 -11.6590726436724701  1.7457902780644050 20.2443444146337548
 -8.6836310871661713  1.7497615208678370 26.3409600936419643
 -11.6530806845977590  1.7518964290751011 24.2096745119596228
 -8.6845993136436821  1.7479617063135990 30.4979099712868518
 -11.6533295553225216  1.7499797503866872 28.4495742919855950
 -8.6852619297215288  1.7468501609398321 34.6265292641597213
 -11.6549199586119361  1.7471303854566900 32.5760227318568312
 -8.6833937959669001  1.7489156810674291 38.8599164851807899
 -11.6553089415951288  1.7467405117407691 36.7375900497437087
 -8.6833269019388766  1.7493896399530620 42.8248883939779006
 -11.6522535501846818  1.7492614635132151 40.8252987156798852
 -8.7087333606699389  7.6942003607254295 22.2576108658144420
 -11.6617974841668115  7.6798113751317363 20.2466761864917508
 -8.7062165062680510  7.7000711801488588 26.3503089029030413
 -11.6768860512466475  7.6803697754801732 24.2379740655472133
 -8.7114399411433183  7.6816426325513438 30.4841773422722149
 -11.6754866210545440  7.6889438796658798 28.4305512893296353
 -8.7035095695015805  7.6870269337576467 34.6478902449105632
 -11.6810757017154749  7.6812366365730096 32.5935083609759886
 -8.7079882627412939  7.6813722951677885 38.8369241507346246
 -11.6763465344320867  7.6982605877285879 36.7261643676395266
 -8.6901851876667848  7.6826617198677365 42.8302634384224206
 -11.6725707183896166  7.6880130639630302 40.8171388440848091
 -11.6297686948080194  4.7129210309799845 22.2583126138850140
 -14.6116139961301066  4.7278189812555995 20.2481825288441222
 -11.6287530813492719  4.7091402268342257 26.3507140815110645
 -14.5959803006195123  4.7294615814829930 24.2348230704204752
 -11.6225285519587604  4.7220643133801614 30.4820313142181156
 -14.6028048275769518  4.7220680544576270 28.4319095686020518
 -11.6261633650100702  4.7144308229573335 34.6469158657197056
 -14.5890754295698226  4.7225640144416916 32.5908618442474278
 -11.6269449829806444  4.7246805735547168 38.8379929533866459
 -14.5939902255541440  4.7096841082391645 36.7245019827597829
 -11.6447660508563011  4.7240175121105050 42.8286249918849364
 -14.5985726000836298  4.7144993203042711 40.8165191070016320
 -14.6227599129271404  1.7499801066797791 22.2496580165497200
 -17.5949933173598012  1.7450376979808282 20.2445540967799218
 -14.6207122074541438  1.7524250789503562 26.3406519983109142
 -17.5893693199758516  1.7521264162659871 24.2112739478652585
 -14.6211726272022808  1.7477090945113709 30.4990443827287940
 -17.5900366569371656  1.7508491055311670 28.4511497895489605
 -14.6250187220571490  1.7480683270213802 34.6255872460612011
 -17.5937177880904407  1.7481249776230081 32.5779165207118382
 -14.6241484761799381  1.7506997296523459 38.8630000983070687
 -17.5932082889688779  1.7477335896614459 36.7358265918632725
 -14.6207049034457590  1.7463118020778199 42.8246166494628824
 -17.5904314296831039  1.7496580177246113 40.8240339732633757
 -14.6462271574317224  7.6950827205677674 22.2587630093617683
 -17.6019605397005847  7.6805901427575751 20.2468991677169541
 -14.6475182745238577  7.7001509007281941 26.3491026764342919
 -17.6170866957016266  7.6802407083075961 24.2390136102253528
 -14.6516313219779040  7.6840763815895219 30.4844242618396883
 -17.6156536848856042  7.6879323635776924 28.4309374059243716
 -14.6376715804867992  7.6871064761904364 34.6491057807346365
 -17.6191613903763411  7.6815987194277549 32.5930260477095430
 -14.6452726482382527  7.6830531969025708 38.8394496458439420
 -17.6134341570689870  7.6974813747363839 36.7251722563432921
 -14.6319285812101221  7.6817530834098626 42.8285394344764612
 -17.6125081513228814  7.6904928638833505 40.8158674521287708
 -17.5705361124990951  4.7144983404982677 22.2599625862909960
 -20.5493581778622918  4.7247708047802668 20.2460413771190026
 -17.5666362173873374  4.7101942308736353 26.3503758416008687
 -20.5340300036780867  4.7285912465325097 24.2353656728452265
 -17.5622763478938069  4.7192559221557433 30.4862595347469316
 -20.5362334983055597  4.7190627222266075 28.4307317135019169
 -17.5649822157810007  4.7146005966156723 34.6467784419029812
 -20.5290933847418806  4.7220231615280355 32.5899805586098452
 -17.5658798071530242  4.7241936990444993 38.8367149118910930
 -20.5332342230571037  4.7063674649190093 36.7215877112399198
 -17.5819187860557662  4.7247994863741720 42.8294300294693713
 -20.5369380678949902  4.7147743785712954 40.8151834361635864
 -20.5856493905539537  7.6944285664508554 22.2585014608073557
 -23.5382142583556622  7.6801811182879600 20.2468180433348230
 -20.5850662278356218  7.6995213308346298 26.3505669050363807
 -23.5523345098847123  7.6789613488874968 24.2391749723843439
 -20.5899606260404262  7.6830176566666442 30.4853653933329412
 -23.5530212648195452  7.6886104784050406 28.4306776305804974
 -20.5784344554409522  7.6860150613763674 34.6476974082645057
 -23.5554192064019752  7.6825241907342239 32.5938758588600734
 -20.5837901641266257  7.6800789512438286 38.8385133906796582
 -23.5518481698141358  7.6972354434296317 36.7254506503978249
 -20.5680696221748534  7.6827246055984739 42.8300790245264267
 -23.5518045239103628  7.6870565060842830 40.8155442845081495
 -4.5316695688297504  4.0297733855599382  1.5471097925565198
 -4.5317133928800661  4.0294828285434123  6.0478382035178999
 -4.5317614924474867  4.0294853225950567 10.5624388838238197
 -4.5317483096030822  4.0294926266034423 15.0780219227680128
 -8.9853553090014540  4.0297819365941461  1.5473850834926064
 -8.9853862174271857  4.0294729414101091  6.0479791737557038
 -8.9854170367796442  4.0294877275734269 10.5621715723351546
 -8.9854173039994620  4.0294920921638040 15.0800207743474228
 -13.4389990956615755  4.0297781064434073  1.5471301844777114
 -13.4390251941305650  4.0294664390611805  6.0478834203866301
 -13.4390818447321934  4.0294871040605162 10.5624774511530291
 -13.4390757877496281  4.0294917358707121 15.0780294589128001
 -17.8926870626651073  4.0297733855599382  1.5474116816506822
 -17.8927014034620555  4.0294480008936695  6.0480150812691056
 -17.8927557381585878  4.0294907560647095 10.5621813249931176
 -17.8927458510252855  4.0294885292328839 15.0800198877421536
 -8.9853353565883012  8.4834418455166798  1.5471292978724420
 -8.9853607424711068  8.4831307125740913  6.0478829770839955
 -8.9854193526847403  8.4831494179614211 10.5624774511530291
 -8.9854115142367164  8.4831556530905310 15.0780294589128001
 -13.4390229672987385  8.4834371246332108  1.5474125682559516
 -13.4390327653587693  8.4831137886522221  6.0480164111770103
 -13.4390887924474871  8.4831614428532767 10.5621835415062897
 -13.4390773019952690  8.4831522683061564 15.0800225475579630
 -17.8926606969762965  8.4834368574133929  1.5471142255828656
 -17.8927058571257085  8.4831446080046788  6.0478426365442459
 -17.8927453165856463  8.4831555640172578 10.5624539561133961
 -17.8927434460469144  8.4831517338665190 15.0780303455180675
 -22.3463463480747286  8.4834451412277811  1.5473841968873370
 -22.3463809085046528  8.4831330284791893  6.0479774005451654
 -22.3464167159603981  8.4831503086941513 10.5621693558219825
 -22.3464088775123741  8.4831515557199744 15.0800203310447891
