Na  O Cl                                
   1.00000000000000     
    -3.1518425247742479   -3.1518425247742479    0.0000000000000000
     4.4573784449999989   -4.4573784449999989    0.0000000000000000
    15.1713500370250305  -15.1713500370250305   21.4555289818703585
   Na   O    Cl
    18     6     6
Direct
  0.5000001744298856  0.4999998255701144  0.2796481972115430
  0.0000001000000012  0.4999998255701144  0.3530987981410263
  0.5000001744298856  0.9999998999999988  0.2796481972115430
  0.5000001744298856  0.4999998255701144  0.3530987981410263
  0.0000001000000012  0.4999998255701144  0.4265493990705167
  0.5000001744298856  0.9999998999999988  0.3530987981410263
  0.5000001744298856  0.4999998255701144  0.4265493990705167
  0.0000001000000012  0.4999998255701144  0.5000000000000000
  0.5000001744298856  0.9999998999999988  0.4265493990705167
  0.5000001744298856  0.4999998255701144  0.5000000000000000
  0.0000001000000012  0.4999998255701144  0.5734506009294833
  0.5000001744298856  0.9999998999999988  0.5000000000000000
  0.5000001744298856  0.4999998255701144  0.5734506009294833
  0.0000001000000012  0.4999998255701144  0.6469012018589737
  0.5000001744298856  0.9999998999999988  0.5734506009294833
  0.5000001744298856  0.4999998255701144  0.6469012018589737
  0.0000001000000012  0.4999998255701144  0.7203518027884570
  0.5000001744298856  0.9999998999999988  0.6469012018589737
  0.5000001744298856  0.4999998255701144  0.3530987981410263
  0.5000001744298856  0.4999998255701144  0.4265493990705167
  0.5000001744298856  0.4999998255701144  0.5000000000000000
  0.5000001744298856  0.4999998255701144  0.5734506009294833
  0.5000001744298856  0.4999998255701144  0.6469012018589737
  0.5000001744298856  0.4999998255701144  0.7203518027884570
  0.0000001000000012  0.9999998999999988  0.3530987762733488
  0.0000001000000012  0.9999998999999988  0.4265493772028393
  0.0000001000000012  0.9999998999999988  0.4999999781323226
  0.0000001000000012  0.9999998999999988  0.5734505790618130
  0.0000001000000012  0.9999998999999988  0.6469011799912963
  0.0000001000000012  0.9999998999999988  0.7203517809207867
 
  0.00000000E+00  0.00000000E+00  0.00000000E+00
  0.00000000E+00  0.00000000E+00  0.00000000E+00
  0.00000000E+00  0.00000000E+00  0.00000000E+00
  0.00000000E+00  0.00000000E+00  0.00000000E+00
  0.00000000E+00  0.00000000E+00  0.00000000E+00
  0.00000000E+00  0.00000000E+00  0.00000000E+00
  0.00000000E+00  0.00000000E+00  0.00000000E+00
  0.00000000E+00  0.00000000E+00  0.00000000E+00
  0.00000000E+00  0.00000000E+00  0.00000000E+00
  0.00000000E+00  0.00000000E+00  0.00000000E+00
  0.00000000E+00  0.00000000E+00  0.00000000E+00
  0.00000000E+00  0.00000000E+00  0.00000000E+00
  0.00000000E+00  0.00000000E+00  0.00000000E+00
  0.00000000E+00  0.00000000E+00  0.00000000E+00
  0.00000000E+00  0.00000000E+00  0.00000000E+00
  0.00000000E+00  0.00000000E+00  0.00000000E+00
  0.00000000E+00  0.00000000E+00  0.00000000E+00
  0.00000000E+00  0.00000000E+00  0.00000000E+00
  0.00000000E+00  0.00000000E+00  0.00000000E+00
  0.00000000E+00  0.00000000E+00  0.00000000E+00
  0.00000000E+00  0.00000000E+00  0.00000000E+00
  0.00000000E+00  0.00000000E+00  0.00000000E+00
  0.00000000E+00  0.00000000E+00  0.00000000E+00
  0.00000000E+00  0.00000000E+00  0.00000000E+00
  0.00000000E+00  0.00000000E+00  0.00000000E+00
  0.00000000E+00  0.00000000E+00  0.00000000E+00
  0.00000000E+00  0.00000000E+00  0.00000000E+00
  0.00000000E+00  0.00000000E+00  0.00000000E+00
  0.00000000E+00  0.00000000E+00  0.00000000E+00
  0.00000000E+00  0.00000000E+00  0.00000000E+00
