 P Li  S                                
   1.00000000000000     
     0.0000000000000000   19.8543324090000013    0.0000000000000000
    -6.2259361679999996   19.8543324090000013    0.0000000000000000
     0.0000000000000000    0.0000000000000000   27.3454031779999909
   P    Li   S 
    12    36    48
Direct
  0.2966011933717892 -0.0341984705140908  0.2890908447702824
  0.2451388935939589  0.0304497167399163  0.5656545517747665
  0.6311761147130130 -0.0352763900001859  0.2894508675620864
  0.6111409748500353  0.0028019104034979  0.5669401604347762
  0.2231910316005062  0.5066791980435131  0.4204791627789417
  0.9653654066295199 -0.0361326081163489  0.2895463149562709
  0.1684231906327418  0.5780714442865246  0.7269142139833068
  0.9175706680574449  0.0265536114432649  0.5635862914646975
  0.5538250020219490  0.5112357779632369  0.4205912203632283
  0.5570864715705013  0.5122196554377708  0.7248325464394780
  0.8890192414324338  0.5104900541113651  0.4208681459171851
  0.8883172682056415  0.5090681719279725  0.7224506972845086
  0.0582377789911914  0.5012110296401151  0.4920290736628761
  0.0648876691232991  0.4967817900650241  0.3487320544671632
  0.2044342957265748  0.3143744270774403  0.7417764654928155
  0.1371720670293889  0.4602695088078263  0.6540914166593871
  0.3755693379615354  0.5108178811681300  0.4913470301493610
  0.3987174850472425  0.4943316546078608  0.3496884019554573
  0.2394362073839953  0.4617496417819636  0.2896605944041966
  0.5446028973058606  0.3117008107855992  0.7415203046835266
  0.3747856226988920  0.5329455423105510  0.6391185373660170
  0.1379003433811004  0.5542679952771452  0.5376303625703607
  0.7051634763766166  0.5161287797078481  0.4897524968850712
  0.7301443166912599  0.4972406054649664  0.3490305386938069
  0.0957365827374533  0.0152795012741952  0.4939376412365010
  0.2393639554086426  0.8792208721004411  0.3264521491113979
  0.2736784062730155  0.0319119345809631  0.4174619772578174
  0.5703081100970959  0.4639906654854135  0.2889340666315607
  0.8241771703195961  0.3729727911355595  0.7465880620093600
  0.7059371063826368  0.5372126356417611  0.6415257583763169
 -0.0865277300180603  0.1211781155424928  0.7761049377818369
  0.0937963811781543  0.0210192335776247  0.6386905434168081
  0.2798826144539169  0.0505899385326069  0.6597958281887735
  0.4316830696414614  0.5864213769795443  0.5220624728080245
  0.4423562217215818  0.0104910919544747  0.4935154486579860
  0.5720219594857369  0.8808527310302156  0.3267705297763945
  0.6153672159301394  0.0207237205904643  0.4223532565674939
  0.9028591227269235  0.4646388347778667  0.2882208294624141
  0.2533399424449630  0.1136932994642569  0.7744056423328844
  0.4657456979042196 -0.0043243759192183  0.6422748831182136
  0.7006589484355401 -0.0482956338052718  0.6914221023929733
  0.7676056893737144  0.5860888671977665  0.5226252065725822
  0.7742250229276398  0.0031145422098454  0.4936641786572893
  0.9022681967420467  0.8831987225916563  0.3276969564517632
  0.9412263490953879  0.0289938233903577  0.4202248160250844
  0.5497854756231911  0.1606389716787092  0.7749184280389573
  0.7162741078321831  0.0651132510270248  0.6435958412047695
  0.9644918033165559  0.0183183820324271  0.6703721673813642
  0.0453460014204364  0.3985648921662748  0.4853599799620599
  0.0631134931623718  0.3783749524612964  0.3600012967650293
  0.2213932095414942  0.4095067255717351  0.4243246706395979
  0.3057984805893558  0.2897700419709354  0.2769692538008132
  0.0026545787011016  0.4266724665252667  0.7907577006039638
  0.0565952786757939  0.3978315001582313  0.6660641577533591
  0.3571780543223260  0.2679552307263847  0.7256149936013139
  0.2671006031310179  0.3301759705512331  0.5715623877402919
  0.3790823853367140  0.3949861056850511  0.4853533673534118
  0.4028716453957159  0.3716974458798099  0.3607101752965789
  0.0219493014087854  0.8337536555269400  0.2477930092269292
  0.0145485754304876  0.8863063204534809  0.3605642076198998
  0.5486070574659341  0.4171636739305513  0.4266737531417439
  0.6383206362921450  0.2905116694543062  0.2782123361310709
  0.3200075266554588  0.4615083746102062  0.7939960368454138
  0.3771781610556060  0.4256678460437187  0.6703754239496206
 -0.0019098954690993  0.9072923670477411  0.5002612533398985
 -0.0200071221604008  0.9118981070861228  0.6236395210825599
  0.6013464801089983  0.3745447632968220  0.7140099284034992
  0.5819667289110404  0.3564841151854589  0.5660285275125231
  0.7069286631085663  0.4029442769937374  0.4855152054626620
  0.7300495223919697  0.3781019233342442  0.3604030588551160
  0.3566694629689247  0.8326167074090896  0.2476218908694858
  0.3441906603154968  0.8890636489334639  0.3600708770118502
  0.8823710746604718  0.4173598434080098  0.4266348038412190
  0.1750449314482466  0.8471958063046301  0.2701952501393603
  0.2374969024040547  0.8394169432831560  0.4202238921020017
  0.9699699944197792  0.2918256762611089  0.2775162225784827
  0.6713426499581380  0.4304437126175902  0.7941261467595415
  0.7424069322491502  0.3901432664583813  0.6718424991475750
  0.3261922914682818  0.9096697018362322  0.5025872707889244
  0.3082164161771910  0.9194310459455856  0.6283438284727544
  0.9397957508159809  0.3635519746354940  0.7130642972835750
  0.1241581671181288  0.9184099692224507  0.5718014394780995
  0.2249572941428966  0.8457108873103020  0.7199925452264415
  0.9072343100841129  0.3606353804471499  0.5668459410701050
  0.6913850056116919  0.8313291677510501  0.2478381285736078
  0.6775907782266045  0.8891148879429414  0.3603785514391313
  0.5080949941321277  0.8478872801989404  0.2707943099442948
  0.5716594808488561  0.8384371569656038  0.4215364902682440
  0.6795275809175003  0.8927906778874440  0.5035017711503021
  0.7142930838695197  0.8545348545986314  0.6270106857449984
  0.4507738836772092  0.9228656826940507  0.5738935047444079
  0.5560406806030144  0.8413404685309334  0.7178054939417129
  0.8440245624833338  0.8446687423730738  0.2702724460111276
  0.9090063085643192  0.8340329123496107  0.4187839505097679
  0.7983418342903452  0.9158444293516907  0.5714032921691161
  0.8741314051861219  0.9039356012447993  0.7246413950049408
 
  0.00000000E+00  0.00000000E+00  0.00000000E+00
  0.00000000E+00  0.00000000E+00  0.00000000E+00
  0.00000000E+00  0.00000000E+00  0.00000000E+00
  0.00000000E+00  0.00000000E+00  0.00000000E+00
  0.00000000E+00  0.00000000E+00  0.00000000E+00
  0.00000000E+00  0.00000000E+00  0.00000000E+00
  0.00000000E+00  0.00000000E+00  0.00000000E+00
  0.00000000E+00  0.00000000E+00  0.00000000E+00
  0.00000000E+00  0.00000000E+00  0.00000000E+00
  0.00000000E+00  0.00000000E+00  0.00000000E+00
  0.00000000E+00  0.00000000E+00  0.00000000E+00
  0.00000000E+00  0.00000000E+00  0.00000000E+00
  0.00000000E+00  0.00000000E+00  0.00000000E+00
  0.00000000E+00  0.00000000E+00  0.00000000E+00
  0.00000000E+00  0.00000000E+00  0.00000000E+00
  0.00000000E+00  0.00000000E+00  0.00000000E+00
  0.00000000E+00  0.00000000E+00  0.00000000E+00
  0.00000000E+00  0.00000000E+00  0.00000000E+00
  0.00000000E+00  0.00000000E+00  0.00000000E+00
  0.00000000E+00  0.00000000E+00  0.00000000E+00
  0.00000000E+00  0.00000000E+00  0.00000000E+00
  0.00000000E+00  0.00000000E+00  0.00000000E+00
  0.00000000E+00  0.00000000E+00  0.00000000E+00
  0.00000000E+00  0.00000000E+00  0.00000000E+00
  0.00000000E+00  0.00000000E+00  0.00000000E+00
  0.00000000E+00  0.00000000E+00  0.00000000E+00
  0.00000000E+00  0.00000000E+00  0.00000000E+00
  0.00000000E+00  0.00000000E+00  0.00000000E+00
  0.00000000E+00  0.00000000E+00  0.00000000E+00
  0.00000000E+00  0.00000000E+00  0.00000000E+00
  0.00000000E+00  0.00000000E+00  0.00000000E+00
  0.00000000E+00  0.00000000E+00  0.00000000E+00
  0.00000000E+00  0.00000000E+00  0.00000000E+00
  0.00000000E+00  0.00000000E+00  0.00000000E+00
  0.00000000E+00  0.00000000E+00  0.00000000E+00
  0.00000000E+00  0.00000000E+00  0.00000000E+00
  0.00000000E+00  0.00000000E+00  0.00000000E+00
  0.00000000E+00  0.00000000E+00  0.00000000E+00
  0.00000000E+00  0.00000000E+00  0.00000000E+00
  0.00000000E+00  0.00000000E+00  0.00000000E+00
  0.00000000E+00  0.00000000E+00  0.00000000E+00
  0.00000000E+00  0.00000000E+00  0.00000000E+00
  0.00000000E+00  0.00000000E+00  0.00000000E+00
  0.00000000E+00  0.00000000E+00  0.00000000E+00
  0.00000000E+00  0.00000000E+00  0.00000000E+00
  0.00000000E+00  0.00000000E+00  0.00000000E+00
  0.00000000E+00  0.00000000E+00  0.00000000E+00
  0.00000000E+00  0.00000000E+00  0.00000000E+00
  0.00000000E+00  0.00000000E+00  0.00000000E+00
  0.00000000E+00  0.00000000E+00  0.00000000E+00
  0.00000000E+00  0.00000000E+00  0.00000000E+00
  0.00000000E+00  0.00000000E+00  0.00000000E+00
  0.00000000E+00  0.00000000E+00  0.00000000E+00
  0.00000000E+00  0.00000000E+00  0.00000000E+00
  0.00000000E+00  0.00000000E+00  0.00000000E+00
  0.00000000E+00  0.00000000E+00  0.00000000E+00
  0.00000000E+00  0.00000000E+00  0.00000000E+00
  0.00000000E+00  0.00000000E+00  0.00000000E+00
  0.00000000E+00  0.00000000E+00  0.00000000E+00
  0.00000000E+00  0.00000000E+00  0.00000000E+00
  0.00000000E+00  0.00000000E+00  0.00000000E+00
  0.00000000E+00  0.00000000E+00  0.00000000E+00
  0.00000000E+00  0.00000000E+00  0.00000000E+00
  0.00000000E+00  0.00000000E+00  0.00000000E+00
  0.00000000E+00  0.00000000E+00  0.00000000E+00
  0.00000000E+00  0.00000000E+00  0.00000000E+00
  0.00000000E+00  0.00000000E+00  0.00000000E+00
  0.00000000E+00  0.00000000E+00  0.00000000E+00
  0.00000000E+00  0.00000000E+00  0.00000000E+00
  0.00000000E+00  0.00000000E+00  0.00000000E+00
  0.00000000E+00  0.00000000E+00  0.00000000E+00
  0.00000000E+00  0.00000000E+00  0.00000000E+00
  0.00000000E+00  0.00000000E+00  0.00000000E+00
  0.00000000E+00  0.00000000E+00  0.00000000E+00
  0.00000000E+00  0.00000000E+00  0.00000000E+00
  0.00000000E+00  0.00000000E+00  0.00000000E+00
  0.00000000E+00  0.00000000E+00  0.00000000E+00
  0.00000000E+00  0.00000000E+00  0.00000000E+00
  0.00000000E+00  0.00000000E+00  0.00000000E+00
  0.00000000E+00  0.00000000E+00  0.00000000E+00
  0.00000000E+00  0.00000000E+00  0.00000000E+00
  0.00000000E+00  0.00000000E+00  0.00000000E+00
  0.00000000E+00  0.00000000E+00  0.00000000E+00
  0.00000000E+00  0.00000000E+00  0.00000000E+00
  0.00000000E+00  0.00000000E+00  0.00000000E+00
  0.00000000E+00  0.00000000E+00  0.00000000E+00
  0.00000000E+00  0.00000000E+00  0.00000000E+00
  0.00000000E+00  0.00000000E+00  0.00000000E+00
  0.00000000E+00  0.00000000E+00  0.00000000E+00
  0.00000000E+00  0.00000000E+00  0.00000000E+00
  0.00000000E+00  0.00000000E+00  0.00000000E+00
  0.00000000E+00  0.00000000E+00  0.00000000E+00
  0.00000000E+00  0.00000000E+00  0.00000000E+00
  0.00000000E+00  0.00000000E+00  0.00000000E+00
  0.00000000E+00  0.00000000E+00  0.00000000E+00
  0.00000000E+00  0.00000000E+00  0.00000000E+00
