INCAR created by Atomic Simulation Environment
 ENCUT = 400.000000
 KSPACING = 0.320000
 SIGMA = 0.050000
 EDIFF = 1.00e-08
 EDIFFG = -1.00e-02
 ALGO = Fast
 GGA = PE
 PREC = Normal
 IBRION = 2
 IDIPOL = 3
 ISIF = 2
 ISMEAR = 0
 ISPIN = 0
 ISYM = 0
 LMAXMIX = 6
 NELM = 150
 NPAR = 8
 NSW = 800
 NWRITE = 1
 DIPOL = 0.4806 0.5758 0.5000 
 KGAMMA = .TRUE.
 LASPH = .TRUE.
 LCHARG = .FALSE.
 LDIPOL = .TRUE.
 LWAVE = .FALSE.
 LREAL = AUTO
