 P Li  S 
 1.0000000000000000
     0.0000000000000000   19.8543324090000013    0.0000000000000000
    -6.2259361679999996   19.8543324090000013    0.0000000000000000
     0.0000000000000000    0.0000000000000000   27.3454031779999909
 P   Li  S  
  12  36  48
Cartesian
 -0.0037900000000000  5.4197800000000003  7.6938123662781548
 -0.0037900000000000  5.4197800000000003 15.4665939552781566
 -0.0037900000000000 12.0378908029999998  7.6938123662781548
 -0.0037900000000000 12.0378908029999998 15.4665939552781566
 -3.1167600000000011 14.4345516060000012 11.5802015889999943
 -0.0037900000000000 18.6560016060000002  7.6938123662781548
 -3.1167600000000011 14.4345516060000012 19.3529831779999952
 -0.0037900000000000 18.6560016060000002 15.4665939552781566
 -3.1167600000000011 21.0526624089999999 11.5802015889999943
 -3.1167600000000011 21.0526624089999999 19.3529831779999952
 -3.1167600000000011 27.6707732120000003 11.5802015889999943
 -3.1167600000000011 27.6707732120000003 19.3529831779999952
 -3.1126500000000008 11.1371608030000004 13.4741715889999973
 -3.1126500000000008 11.1371608030000004  9.6862315889999913
 -3.1126500000000008 11.1371608030000004 21.2469531779999983
 -3.1126500000000008 11.1371608030000004 17.4590131779999922
 -3.1126500000000008 17.7552716060000009 13.4741715889999973
 -3.1126500000000008 17.7552716060000009  9.6862315889999913
 -3.0640200000000002 14.1856216060000015  7.6938123662781548
 -3.1126500000000008 17.7552716060000009 21.2469531779999983
 -3.1126500000000008 17.7552716060000009 17.4590131779999922
 -3.0640200000000002 14.1856216060000015 15.4665939552781566
 -3.1126500000000008 24.3733824090000013 13.4741715889999973
 -3.1126500000000008 24.3733824090000013  9.6862315889999913
 -6.2256161679999993 21.9533924090000028 13.5726215889999899
 -6.2256161679999993 21.9533924090000028  9.5877815889999987
 -6.1769800000000012 25.5230424090000021 11.5802015889999943
 -3.0640200000000002 20.8037324090000020  7.6938123662781548
 -3.1126500000000008 24.3733824090000013 21.2469531779999983
 -3.1126500000000008 24.3733824090000013 17.4590131779999922
 -6.2256161679999993 21.9533924090000028 21.3454031779999909
 -6.2256161679999993 21.9533924090000028 17.3605631779999960
 -6.1769800000000012 25.5230424090000021 19.3529831779999952
 -3.0640200000000002 20.8037324090000020 15.4665939552781566
 -6.2256161679999993 28.5715032120000032 13.5726215889999899
 -6.2256161679999993 28.5715032120000032  9.5877815889999987
 -6.1769800000000012 32.1411532119999990 11.5802015889999943
 -3.0640200000000002 27.4218432119999989  7.6938123662781548
 -6.2256161679999993 28.5715032120000032 21.3454031779999909
 -6.2256161679999993 28.5715032120000032 17.3605631779999960
 -6.1769800000000012 32.1411532119999990 19.3529831779999952
 -3.0640200000000002 27.4218432119999989 15.4665939552781566
 -6.2256161679999993 35.1896140150000036 13.5726215889999899
 -6.2256161679999993 35.1896140150000036  9.5877815889999987
 -6.1769800000000012 38.7592640149999994 11.5802015889999943
 -6.2256161679999993 35.1896140150000036 21.3454031779999909
 -6.2256161679999993 35.1896140150000036 17.3605631779999960
 -6.1769800000000012 38.7592640149999994 19.3529831779999952
 -2.4355300000000004  8.7759808029999995 13.2740115889999899
 -2.4355300000000004  8.7759808029999995  9.8863915889999916
 -2.4377800000000001 12.4892208029999985 11.5802015889999943
 -2.0659100000000001 11.9707908029999999  7.6938123662781548
 -2.4355300000000004  8.7759808029999995 21.0467931779999908
 -2.4355300000000004  8.7759808029999995 17.6591731779999925
 -2.4377800000000001 12.4892208029999985 19.3529831779999952
 -2.0659100000000001 11.9707908029999999 15.4665939552781566
 -2.4355300000000004 15.3940916059999999 13.2740115889999899
 -2.4355300000000004 15.3940916059999999  9.8863915889999916
 -5.5484900000000001 17.6964616059999997  5.9999999999999991
 -5.5484900000000001 17.6964616059999997  9.3876215889999983
 -2.4377800000000001 19.1073316059999989 11.5802015889999943
 -2.0659100000000001 18.5889016060000003  7.6938123662781548
 -2.4355300000000004 15.3940916059999999 21.0467931779999908
 -2.4355300000000004 15.3940916059999999 17.6591731779999925
 -5.5484900000000001 17.6964616059999997 13.7727815889999974
 -5.5484900000000001 17.6964616059999997 17.1604031779999957
 -2.4377800000000001 19.1073316059999989 19.3529831779999952
 -2.0659100000000001 18.5889016060000003 15.4665939552781566
 -2.4355300000000004 22.0122024090000004 13.2740115889999899
 -2.4355300000000004 22.0122024090000004  9.8863915889999916
 -5.5484900000000001 24.3145724089999966  5.9999999999999991
 -5.5484900000000001 24.3145724089999966  9.3876215889999983
 -2.4377800000000001 25.7254424089999993 11.5802015889999943
 -5.5507500000000007 20.6013324090000012  7.6938123662781548
 -5.1788699999999999 21.1197624089999998 11.5802015889999943
 -2.0659100000000001 25.2070124090000007  7.6938123662781548
 -2.4355300000000004 22.0122024090000004 21.0467931779999908
 -2.4355300000000004 22.0122024090000004 17.6591731779999925
 -5.5484900000000001 24.3145724089999966 13.7727815889999974
 -5.5484900000000001 24.3145724089999966 17.1604031779999957
 -2.4377800000000001 25.7254424089999993 19.3529831779999952
 -5.5507500000000007 20.6013324090000012 15.4665939552781566
 -5.1788699999999999 21.1197624089999998 19.3529831779999952
 -2.0659100000000001 25.2070124090000007 15.4665939552781566
 -5.5484900000000001 30.9326832120000006  5.9999999999999991
 -5.5484900000000001 30.9326832120000006  9.3876215889999983
 -5.5507500000000007 27.2194432120000016  7.6938123662781548
 -5.1788699999999999 27.7378732120000002 11.5802015889999943
 -5.5484900000000001 30.9326832120000006 13.7727815889999974
 -5.5484900000000001 30.9326832120000006 17.1604031779999957
 -5.5507500000000007 27.2194432120000016 15.4665939552781566
 -5.1788699999999999 27.7378732120000002 19.3529831779999952
 -5.5507500000000007 33.8375540150000020  7.6938123662781548
 -5.1788699999999999 34.3559840150000042 11.5802015889999943
 -5.5507500000000007 33.8375540150000020 15.4665939552781566
 -5.1788699999999999 34.3559840150000042 19.3529831779999952
