Cl Na  O                                
   1.00000000000000     
    -8.9073273000000004    8.9073273000000004    0.0000000000000000
   -17.8146546000000008    0.0000000000000000    0.0000000000000000
     0.0000000000000000    0.0000000000000000   44.3307090300000013
   Cl   Na   O 
    32   204    32
Direct
  0.1528477199999969  0.0535103599999971  0.0846945899999980
  0.1528465199999971  0.0535120799999973  0.1873886400000018
  0.1528454299999993  0.0535124499999995  0.2891720800000002
  0.1528479799999971  0.0535104699999991  0.3897976900000018
  0.1528477499999994  0.3035107199999985  0.0847182199999992
  0.1528474699999975  0.3035121200000006  0.1873808799999992
  0.1528500800000003  0.3035109599999970  0.2891407299999997
  0.1528481499999970  0.3035103799999987  0.3898468900000012
  0.1528478600000014  0.5535101199999986  0.0846945999999988
  0.1528497400000006  0.5535110799999998  0.1873880500000027
  0.1528494000000009  0.5535119299999991  0.2891726300000030
  0.1528478800000030  0.5535106999999968  0.3897977800000021
  0.1528478099999973  0.8035105499999986  0.0847181700000021
  0.1528447399999990  0.8035124800000020  0.1873801500000027
  0.1528469300000026  0.8035118800000021  0.2891413299999996
  0.1528476299999966  0.8035110300000028  0.3898469000000020
  0.6528477199999969  0.0535103599999971  0.0846945899999980
  0.6528465199999971  0.0535120799999973  0.1873886500000026
  0.6528454299999993  0.0535124499999995  0.2891720900000010
  0.6528479799999971  0.0535104699999991  0.3897976900000018
  0.6528477499999994  0.3035107199999985  0.0847182199999992
  0.6528474599999967  0.3035121200000006  0.1873808799999992
  0.6528500699999995  0.3035109500000033  0.2891407400000006
  0.6528481300000024  0.3035103799999987  0.3898468800000003
  0.6528478600000014  0.5535101199999986  0.0846945999999988
  0.6528497400000006  0.5535110799999998  0.1873880500000027
  0.6528493900000001  0.5535119399999999  0.2891726399999968
  0.6528478800000030  0.5535106999999968  0.3897977600000004
  0.6528478099999973  0.8035105499999986  0.0847181700000021
  0.6528447399999990  0.8035124800000020  0.1873801400000019
  0.6528469300000026  0.8035118800000021  0.2891413299999996
  0.6528476499999982  0.8035110300000028  0.3898468900000012
  0.4028485500000016  0.0535090699999969  0.0854499000000004
  0.1526498699999976  0.1785768800000014  0.0338451800000001
  0.4028480799999983  0.0535108999999991  0.1874234100000010
  0.1528202900000011  0.1797240799999997  0.1364568600000027
  0.4028485199999992  0.0535092599999984  0.2892099000000030
  0.1526254500000022  0.1783758999999989  0.2383574999999993
  0.4028501199999965  0.0535084400000017  0.3901640799999981
  0.1527760800000024  0.1777704400000033  0.3402670299999997
  0.4030420100000001  0.1783786900000024  0.0338366300000033
  0.4028497400000006  0.3035082800000026  0.0854978799999984
  0.1530542699999984  0.4284383600000012  0.0338451699999993
  0.4054070899999971  0.1771877300000000  0.1363164699999970
  0.4028458299999969  0.3035190800000009  0.1873977999999994
  0.1528405399999997  0.4273229200000017  0.1364568400000010
  0.4024973000000003  0.1786002600000032  0.2383478599999975
  0.4028483100000031  0.3035090300000007  0.2892613900000001
  0.1530686299999999  0.4286552000000015  0.2383574099999990
  0.4011666299999987  0.1793524699999978  0.3402273499999993
  0.4028495100000029  0.3035089400000004  0.3903215200000005
  0.1529223200000018  0.4292497499999968  0.3402668499999990
  0.4026486400000024  0.4286625000000015  0.0338418999999988
  0.4028488200000027  0.5535086499999977  0.0854502099999976
  0.1526499400000034  0.6785768700000006  0.0338452000000018
  0.4002799599999989  0.4298388500000030  0.1363156500000002
  0.4028466899999970  0.5535097100000002  0.1874238500000018
  0.1528212500000024  0.6797237899999971  0.1364570000000001
  0.4032081699999992  0.4284252699999982  0.2383488799999967
  0.4028355800000014  0.5535123900000016  0.2892077999999998
  0.1526245299999971  0.6783765799999983  0.2383572299999983
  0.4045311599999977  0.4276658599999976  0.3402265900000003
  0.4028498200000001  0.5535088500000001  0.3901644500000003
  0.1527756799999977  0.6777706000000023  0.3402668599999998
  0.4030419799999976  0.6783786499999991  0.0338366399999970
  0.4028499599999975  0.8035079400000029  0.0854975499999995
  0.1530543699999996  0.9284382900000026  0.0338451399999968
  0.4054080200000030  0.6771854300000015  0.1363164699999970
  0.4028456799999987  0.8035105700000003  0.1873972200000011
  0.1528394300000002  0.9273232500000006  0.1364563300000015
  0.4024972899999995  0.6786004399999968  0.2383478799999992
  0.4028496199999978  0.8035102099999989  0.2892607200000015
  0.1530696900000024  0.9286529199999976  0.2383577200000033
  0.4011657799999995  0.6793539000000024  0.3402269999999987
  0.4028492799999981  0.8035092900000009  0.3903210599999980
  0.1529226999999977  0.9292491699999985  0.3402665300000010
  0.4026487200000020  0.9286624100000012  0.0338418799999971
  0.4002807800000028  0.9298386899999969  0.1363157299999997
  0.4032068100000004  0.9284158800000029  0.2383450199999970
  0.4045320099999969  0.9276654800000017  0.3402265699999987
  0.9028485199999992  0.0535090799999978  0.0854498899999996
  0.6526498500000031  0.1785768900000022  0.0338451800000001
  0.9028480599999966  0.0535109100000000  0.1874234100000010
  0.6528202900000011  0.1797241000000014  0.1364568600000027
  0.9028484099999972  0.0535092800000001  0.2892099000000030
  0.6526254400000013  0.1783758999999989  0.2383574899999985
  0.9028502800000027  0.0535083400000005  0.3901640699999973
  0.6527760800000024  0.1777704400000033  0.3402670500000013
  0.9030420100000001  0.1783786800000016  0.0338365899999999
  0.9028497299999998  0.3035082700000018  0.0854978599999967
  0.6530542400000030  0.4284383700000021  0.0338451399999968
  0.9054071099999987  0.1771877099999983  0.1363164600000033
  0.9028458499999985  0.3035190599999993  0.1873977899999986
  0.6528405600000013  0.4273229000000001  0.1364568199999994
  0.9024973200000019  0.1786002400000015  0.2383478699999984
  0.9028482499999981  0.3035090600000032  0.2892614000000009
  0.6530686500000016  0.4286551900000006  0.2383574099999990
  0.9011664900000014  0.1793525300000027  0.3402273399999984
  0.9028496500000003  0.3035088299999984  0.3903215300000014
  0.6529223100000010  0.4292497699999984  0.3402669000000031
  0.9026486699999978  0.4286624799999998  0.0338418600000026
  0.9028488000000010  0.5535086499999977  0.0854501999999968
  0.6526499499999971  0.6785768700000006  0.0338451900000010
  0.9002799599999989  0.4298388400000022  0.1363156199999978
  0.9028466299999991  0.5535097200000010  0.1874238500000018
  0.6528212500000024  0.6797238099999987  0.1364569899999992
  0.9032081900000009  0.4284252599999974  0.2383488799999967
  0.9028355700000006  0.5535124100000033  0.2892077999999998
  0.6526245299999971  0.6783765699999975  0.2383572299999983
  0.9045310300000011  0.4276659300000034  0.3402266100000020
  0.9028500399999970  0.5535087599999997  0.3901644500000003
  0.6527756799999977  0.6777705599999990  0.3402668700000007
  0.9030420200000009  0.6783786299999974  0.0338366100000016
  0.9028499300000021  0.8035079400000029  0.0854975399999987
  0.6530543499999979  0.9284383000000034  0.0338451300000031
  0.9054079799999997  0.6771854400000024  0.1363164699999970
  0.9028456799999987  0.8035105599999994  0.1873972300000020
  0.6528394400000010  0.9273232199999981  0.1364563300000015
  0.9024973000000003  0.6786004300000030  0.2383478900000000
  0.9028495800000016  0.8035102199999997  0.2892607400000031
  0.6530697000000032  0.9286529199999976  0.2383577299999970
  0.9011656200000004  0.6793539800000019  0.3402270200000004
  0.9028494900000013  0.8035091799999989  0.3903210799999997
  0.6529227099999986  0.9292491699999985  0.3402665899999988
  0.9026487200000020  0.9286624100000012  0.0338418600000026
  0.9002807700000020  0.9298386999999977  0.1363157199999989
  0.9032068300000020  0.9284158700000020  0.2383450100000033
  0.9045318900000012  0.9276655399999996  0.3402265799999995
  0.1694625399999978  0.0670196599999997  0.5019960999999995
  0.1698678099999995  0.2332029399999982  0.4567401099999984
  0.1694333100000023  0.0671060800000021  0.5941906199999991
  0.1695831999999982  0.2336049099999968  0.5462907000000001
  0.1694523500000003  0.0670637400000018  0.6880497200000022
  0.1694114399999975  0.2337876300000019  0.6419641299999981
  0.1694116700000023  0.0669965100000027  0.7809305400000000
  0.1695162600000018  0.2336814599999997  0.7348550999999972
  0.1696018800000019  0.0669334600000013  0.8766264400000026
  0.1694576100000020  0.2336385199999995  0.8287238500000029
  0.1692433199999996  0.0675214899999972  0.9661469400000016
  0.1694671200000002  0.2337493899999998  0.9209425900000028
  0.5023890000000009  0.0660672799999986  0.5021379000000010
  0.5034437400000016  0.2328822200000005  0.4568291599999981
  0.5008763000000016  0.0668660899999978  0.5945274999999981
  0.5043385700000016  0.2316093700000010  0.5468765999999974
  0.5030180799999968  0.0654218199999974  0.6877224400000017
  0.5032730799999996  0.2326631299999988  0.6413473699999983
  0.5033435200000014  0.0659982399999990  0.7815653700000027
  0.5029214999999994  0.2321164100000033  0.7351362100000003
  0.5042804400000023  0.0650045300000031  0.8760168199999967
  0.5007907299999985  0.2336616799999973  0.8283847399999971
  0.5037959200000017  0.0659610499999985  0.9660804499999998
  0.5023339999999976  0.2327047100000001  0.9207783100000029
  0.1694548299999994  0.4002824299999972  0.5019222700000014
  0.1695354000000009  0.5668236599999972  0.4568175599999975
  0.1694808000000023  0.4003539400000022  0.5941792899999996
  0.1693962499999984  0.5670892799999976  0.5462596899999994
  0.1695432900000000  0.4003355400000004  0.6880384899999967
  0.1693569899999972  0.5671809600000017  0.6419321099999991
  0.1693759599999964  0.4004026799999991  0.7809771599999991
  0.1695678600000008  0.5670349800000025  0.7348427900000019
  0.1694469700000028  0.4003914700000024  0.8766287699999964
  0.1695899899999986  0.5669738599999974  0.8287015499999981
  0.1694525600000034  0.4004904199999970  0.9661634100000001
  0.1694271499999971  0.5671117300000006  0.9209262400000000
  0.8365384199999966  0.0680227599999981  0.5021607799999970
  0.8352375999999992  0.2346532800000034  0.4568193500000035
  0.8382106800000031  0.0671047700000003  0.5945257200000000
  0.8344669600000003  0.2358453000000011  0.5468846699999972
  0.8358448999999979  0.0686001099999984  0.6877769700000016
  0.8356743399999971  0.2347406499999991  0.6413543199999978
  0.8357020999999989  0.0680310400000010  0.7815382799999995
  0.8358868500000014  0.2352709500000003  0.7351370200000034
  0.8346459799999977  0.0692130300000002  0.8760307100000020
  0.8380444800000006  0.2338490500000034  0.8283826999999988
  0.8352641099999971  0.0680601400000000  0.9660483400000004
  0.8364774499999967  0.2348356099999975  0.9207582299999970
  0.5023212600000022  0.3994288700000013  0.5021281499999972
  0.5037069600000024  0.5660167999999999  0.4568254799999991
  0.5008571400000008  0.4001924700000004  0.5945168800000005
  0.5041448599999967  0.5650400099999970  0.5468420999999992
  0.5029340099999970  0.3987935000000036  0.6877270900000028
  0.5032473899999985  0.5659933000000024  0.6413517000000013
  0.5031729700000014  0.3993617400000034  0.7815592800000033
  0.5029105099999995  0.5654497700000007  0.7351434600000033
  0.5043649500000029  0.3983100199999967  0.8760162399999984
  0.5008170099999987  0.5669347199999990  0.8283653399999977
  0.5034634900000015  0.3995094599999973  0.9660851000000008
  0.5023041399999997  0.5661864799999989  0.9207784600000011
  0.1693289099999973  0.7338456199999968  0.5019837600000017
  0.1696048700000006  0.9001720199999994  0.4568054699999990
  0.1693718200000021  0.7337747300000004  0.5941863500000011
  0.1696391999999989  0.9002617299999969  0.5462688799999995
  0.1695140799999990  0.7337182899999988  0.6880446199999994
  0.1695528799999977  0.9003923499999971  0.6419466600000021
  0.1693747200000004  0.7338274499999997  0.7809600399999965
  0.1695439399999970  0.9003139000000004  0.7348567399999979
  0.1696942199999967  0.7335790899999992  0.8766165600000022
  0.1695210600000010  0.9003136700000027  0.8286940500000028
  0.1692637299999973  0.7341597799999988  0.9661504700000023
  0.1693366299999965  0.9005311199999966  0.9209065100000018
  0.8367967900000011  0.4012251799999973  0.5021148599999989
  0.8354373299999978  0.5678875500000018  0.4568041100000002
  0.8381015699999992  0.4004891399999977  0.5944980399999977
  0.8345167100000026  0.5691656099999989  0.5468776399999982
  0.8358717400000018  0.4019627999999997  0.6877640900000017
  0.8355505299999990  0.5682016499999989  0.6413393799999980
  0.8357174599999979  0.4014295599999969  0.7815568299999995
  0.8359131799999986  0.5686011800000017  0.7351330999999988
  0.8347081699999990  0.4024787399999994  0.8760032300000020
  0.8380545600000033  0.5672597100000019  0.8283956000000003
  0.8353278599999996  0.4013109600000035  0.9661138900000026
  0.8366466900000020  0.5680335699999972  0.9207803600000020
  0.5023825900000034  0.7327286599999994  0.5021185499999987
  0.5037548999999970  0.8993240599999979  0.4568088999999986
  0.5008909100000025  0.7334914600000033  0.5945379599999967
  0.5041229400000020  0.8983669300000017  0.5468655900000030
  0.5029376100000036  0.7321122800000026  0.6877467699999968
  0.5032422299999979  0.8993577000000030  0.6413664900000029
  0.5033420800000030  0.7326956899999999  0.7815907700000011
  0.5028989400000015  0.8987906099999989  0.7351360899999975
  0.5043002999999970  0.7316422099999969  0.8760024400000006
  0.5009658600000009  0.9002082499999986  0.8283581900000030
  0.5034882499999966  0.7328310700000031  0.9660899900000004
  0.5024214700000016  0.8993705800000029  0.9207516000000027
  0.8365109799999999  0.7346725299999974  0.5021410200000034
  0.8352243400000035  0.9012782200000018  0.4568315200000015
  0.8380077400000019  0.7339301599999999  0.5945013700000032
  0.8345733299999978  0.9024748100000011  0.5468864699999969
  0.8358665000000016  0.7352851999999999  0.6877841800000013
  0.8357465699999977  0.9013603699999990  0.6413156300000011
  0.8357502599999975  0.7347830200000018  0.7815583900000007
  0.8359249399999982  0.9019211499999997  0.7351369000000005
  0.8346777900000006  0.7358322500000014  0.8760086599999966
  0.8381179200000020  0.9005538799999968  0.8283954600000030
  0.8353069200000007  0.7347316099999972  0.9660773499999991
  0.8365972400000032  0.9013424999999984  0.9207485100000028
  0.4028486799999982  0.0535092699999993  0.0348600399999981
  0.4028217799999965  0.0535242199999999  0.1364597600000010
  0.4028434800000014  0.0535209199999969  0.2383232000000035
  0.4028478500000006  0.0535104599999983  0.3401756299999974
  0.4028506699999994  0.3035083799999967  0.0348775300000028
  0.4028229199999984  0.3035233299999973  0.1364728699999986
  0.4028498600000034  0.3035090199999999  0.2383370800000009
  0.4028494900000013  0.3035088800000025  0.3402213600000010
  0.4028487599999977  0.5535091799999989  0.0348601399999993
  0.4028231899999994  0.5535225400000030  0.1364594599999975
  0.4028482699999998  0.5535077400000006  0.2383225499999995
  0.4028487400000031  0.5535097500000035  0.3401754300000022
  0.4028505400000029  0.8035084999999995  0.0348774200000008
  0.4028217999999981  0.8035235099999980  0.1364718800000020
  0.4028438599999973  0.8035207100000008  0.2383364599999993
  0.4028476699999999  0.8035110699999990  0.3402216400000029
  0.9028486899999990  0.0535092699999993  0.0348600299999973
  0.9028217700000027  0.0535242199999999  0.1364597600000010
  0.9028434700000005  0.0535209199999969  0.2383231900000027
  0.9028478399999997  0.0535104599999983  0.3401756199999966
  0.9028506699999994  0.3035083799999967  0.0348775200000020
  0.9028229199999984  0.3035233199999965  0.1364728499999970
  0.9028498600000034  0.3035090199999999  0.2383370800000009
  0.9028494800000004  0.3035088800000025  0.3402213700000019
  0.9028487699999985  0.5535091699999981  0.0348601299999984
  0.9028231799999986  0.5535225400000030  0.1364594499999967
  0.9028482699999998  0.5535077400000006  0.2383225499999995
  0.9028487499999969  0.5535097400000026  0.3401754400000030
  0.9028505300000020  0.8035084999999995  0.0348774200000008
  0.9028217999999981  0.8035234999999972  0.1364718800000020
  0.9028438599999973  0.8035207100000008  0.2383364599999993
  0.9028476699999999  0.8035110699999990  0.3402216499999966
 
  0.00000000E+00  0.00000000E+00  0.00000000E+00
  0.00000000E+00  0.00000000E+00  0.00000000E+00
  0.00000000E+00  0.00000000E+00  0.00000000E+00
  0.00000000E+00  0.00000000E+00  0.00000000E+00
  0.00000000E+00  0.00000000E+00  0.00000000E+00
  0.00000000E+00  0.00000000E+00  0.00000000E+00
  0.00000000E+00  0.00000000E+00  0.00000000E+00
  0.00000000E+00  0.00000000E+00  0.00000000E+00
  0.00000000E+00  0.00000000E+00  0.00000000E+00
  0.00000000E+00  0.00000000E+00  0.00000000E+00
  0.00000000E+00  0.00000000E+00  0.00000000E+00
  0.00000000E+00  0.00000000E+00  0.00000000E+00
  0.00000000E+00  0.00000000E+00  0.00000000E+00
  0.00000000E+00  0.00000000E+00  0.00000000E+00
  0.00000000E+00  0.00000000E+00  0.00000000E+00
  0.00000000E+00  0.00000000E+00  0.00000000E+00
  0.00000000E+00  0.00000000E+00  0.00000000E+00
  0.00000000E+00  0.00000000E+00  0.00000000E+00
  0.00000000E+00  0.00000000E+00  0.00000000E+00
  0.00000000E+00  0.00000000E+00  0.00000000E+00
  0.00000000E+00  0.00000000E+00  0.00000000E+00
  0.00000000E+00  0.00000000E+00  0.00000000E+00
  0.00000000E+00  0.00000000E+00  0.00000000E+00
  0.00000000E+00  0.00000000E+00  0.00000000E+00
  0.00000000E+00  0.00000000E+00  0.00000000E+00
  0.00000000E+00  0.00000000E+00  0.00000000E+00
  0.00000000E+00  0.00000000E+00  0.00000000E+00
  0.00000000E+00  0.00000000E+00  0.00000000E+00
  0.00000000E+00  0.00000000E+00  0.00000000E+00
  0.00000000E+00  0.00000000E+00  0.00000000E+00
  0.00000000E+00  0.00000000E+00  0.00000000E+00
  0.00000000E+00  0.00000000E+00  0.00000000E+00
  0.00000000E+00  0.00000000E+00  0.00000000E+00
  0.00000000E+00  0.00000000E+00  0.00000000E+00
  0.00000000E+00  0.00000000E+00  0.00000000E+00
  0.00000000E+00  0.00000000E+00  0.00000000E+00
  0.00000000E+00  0.00000000E+00  0.00000000E+00
  0.00000000E+00  0.00000000E+00  0.00000000E+00
  0.00000000E+00  0.00000000E+00  0.00000000E+00
  0.00000000E+00  0.00000000E+00  0.00000000E+00
  0.00000000E+00  0.00000000E+00  0.00000000E+00
  0.00000000E+00  0.00000000E+00  0.00000000E+00
  0.00000000E+00  0.00000000E+00  0.00000000E+00
  0.00000000E+00  0.00000000E+00  0.00000000E+00
  0.00000000E+00  0.00000000E+00  0.00000000E+00
  0.00000000E+00  0.00000000E+00  0.00000000E+00
  0.00000000E+00  0.00000000E+00  0.00000000E+00
  0.00000000E+00  0.00000000E+00  0.00000000E+00
  0.00000000E+00  0.00000000E+00  0.00000000E+00
  0.00000000E+00  0.00000000E+00  0.00000000E+00
  0.00000000E+00  0.00000000E+00  0.00000000E+00
  0.00000000E+00  0.00000000E+00  0.00000000E+00
  0.00000000E+00  0.00000000E+00  0.00000000E+00
  0.00000000E+00  0.00000000E+00  0.00000000E+00
  0.00000000E+00  0.00000000E+00  0.00000000E+00
  0.00000000E+00  0.00000000E+00  0.00000000E+00
  0.00000000E+00  0.00000000E+00  0.00000000E+00
  0.00000000E+00  0.00000000E+00  0.00000000E+00
  0.00000000E+00  0.00000000E+00  0.00000000E+00
  0.00000000E+00  0.00000000E+00  0.00000000E+00
  0.00000000E+00  0.00000000E+00  0.00000000E+00
  0.00000000E+00  0.00000000E+00  0.00000000E+00
  0.00000000E+00  0.00000000E+00  0.00000000E+00
  0.00000000E+00  0.00000000E+00  0.00000000E+00
  0.00000000E+00  0.00000000E+00  0.00000000E+00
  0.00000000E+00  0.00000000E+00  0.00000000E+00
  0.00000000E+00  0.00000000E+00  0.00000000E+00
  0.00000000E+00  0.00000000E+00  0.00000000E+00
  0.00000000E+00  0.00000000E+00  0.00000000E+00
  0.00000000E+00  0.00000000E+00  0.00000000E+00
  0.00000000E+00  0.00000000E+00  0.00000000E+00
  0.00000000E+00  0.00000000E+00  0.00000000E+00
  0.00000000E+00  0.00000000E+00  0.00000000E+00
  0.00000000E+00  0.00000000E+00  0.00000000E+00
  0.00000000E+00  0.00000000E+00  0.00000000E+00
  0.00000000E+00  0.00000000E+00  0.00000000E+00
  0.00000000E+00  0.00000000E+00  0.00000000E+00
  0.00000000E+00  0.00000000E+00  0.00000000E+00
  0.00000000E+00  0.00000000E+00  0.00000000E+00
  0.00000000E+00  0.00000000E+00  0.00000000E+00
  0.00000000E+00  0.00000000E+00  0.00000000E+00
  0.00000000E+00  0.00000000E+00  0.00000000E+00
  0.00000000E+00  0.00000000E+00  0.00000000E+00
  0.00000000E+00  0.00000000E+00  0.00000000E+00
  0.00000000E+00  0.00000000E+00  0.00000000E+00
  0.00000000E+00  0.00000000E+00  0.00000000E+00
  0.00000000E+00  0.00000000E+00  0.00000000E+00
  0.00000000E+00  0.00000000E+00  0.00000000E+00
  0.00000000E+00  0.00000000E+00  0.00000000E+00
  0.00000000E+00  0.00000000E+00  0.00000000E+00
  0.00000000E+00  0.00000000E+00  0.00000000E+00
  0.00000000E+00  0.00000000E+00  0.00000000E+00
  0.00000000E+00  0.00000000E+00  0.00000000E+00
  0.00000000E+00  0.00000000E+00  0.00000000E+00
  0.00000000E+00  0.00000000E+00  0.00000000E+00
  0.00000000E+00  0.00000000E+00  0.00000000E+00
  0.00000000E+00  0.00000000E+00  0.00000000E+00
  0.00000000E+00  0.00000000E+00  0.00000000E+00
  0.00000000E+00  0.00000000E+00  0.00000000E+00
  0.00000000E+00  0.00000000E+00  0.00000000E+00
  0.00000000E+00  0.00000000E+00  0.00000000E+00
  0.00000000E+00  0.00000000E+00  0.00000000E+00
  0.00000000E+00  0.00000000E+00  0.00000000E+00
  0.00000000E+00  0.00000000E+00  0.00000000E+00
  0.00000000E+00  0.00000000E+00  0.00000000E+00
  0.00000000E+00  0.00000000E+00  0.00000000E+00
  0.00000000E+00  0.00000000E+00  0.00000000E+00
  0.00000000E+00  0.00000000E+00  0.00000000E+00
  0.00000000E+00  0.00000000E+00  0.00000000E+00
  0.00000000E+00  0.00000000E+00  0.00000000E+00
  0.00000000E+00  0.00000000E+00  0.00000000E+00
  0.00000000E+00  0.00000000E+00  0.00000000E+00
  0.00000000E+00  0.00000000E+00  0.00000000E+00
  0.00000000E+00  0.00000000E+00  0.00000000E+00
  0.00000000E+00  0.00000000E+00  0.00000000E+00
  0.00000000E+00  0.00000000E+00  0.00000000E+00
  0.00000000E+00  0.00000000E+00  0.00000000E+00
  0.00000000E+00  0.00000000E+00  0.00000000E+00
  0.00000000E+00  0.00000000E+00  0.00000000E+00
  0.00000000E+00  0.00000000E+00  0.00000000E+00
  0.00000000E+00  0.00000000E+00  0.00000000E+00
  0.00000000E+00  0.00000000E+00  0.00000000E+00
  0.00000000E+00  0.00000000E+00  0.00000000E+00
  0.00000000E+00  0.00000000E+00  0.00000000E+00
  0.00000000E+00  0.00000000E+00  0.00000000E+00
  0.00000000E+00  0.00000000E+00  0.00000000E+00
  0.00000000E+00  0.00000000E+00  0.00000000E+00
  0.00000000E+00  0.00000000E+00  0.00000000E+00
  0.00000000E+00  0.00000000E+00  0.00000000E+00
  0.00000000E+00  0.00000000E+00  0.00000000E+00
  0.00000000E+00  0.00000000E+00  0.00000000E+00
  0.00000000E+00  0.00000000E+00  0.00000000E+00
  0.00000000E+00  0.00000000E+00  0.00000000E+00
  0.00000000E+00  0.00000000E+00  0.00000000E+00
  0.00000000E+00  0.00000000E+00  0.00000000E+00
  0.00000000E+00  0.00000000E+00  0.00000000E+00
  0.00000000E+00  0.00000000E+00  0.00000000E+00
  0.00000000E+00  0.00000000E+00  0.00000000E+00
  0.00000000E+00  0.00000000E+00  0.00000000E+00
  0.00000000E+00  0.00000000E+00  0.00000000E+00
  0.00000000E+00  0.00000000E+00  0.00000000E+00
  0.00000000E+00  0.00000000E+00  0.00000000E+00
  0.00000000E+00  0.00000000E+00  0.00000000E+00
  0.00000000E+00  0.00000000E+00  0.00000000E+00
  0.00000000E+00  0.00000000E+00  0.00000000E+00
  0.00000000E+00  0.00000000E+00  0.00000000E+00
  0.00000000E+00  0.00000000E+00  0.00000000E+00
  0.00000000E+00  0.00000000E+00  0.00000000E+00
  0.00000000E+00  0.00000000E+00  0.00000000E+00
  0.00000000E+00  0.00000000E+00  0.00000000E+00
  0.00000000E+00  0.00000000E+00  0.00000000E+00
  0.00000000E+00  0.00000000E+00  0.00000000E+00
  0.00000000E+00  0.00000000E+00  0.00000000E+00
  0.00000000E+00  0.00000000E+00  0.00000000E+00
  0.00000000E+00  0.00000000E+00  0.00000000E+00
  0.00000000E+00  0.00000000E+00  0.00000000E+00
  0.00000000E+00  0.00000000E+00  0.00000000E+00
  0.00000000E+00  0.00000000E+00  0.00000000E+00
  0.00000000E+00  0.00000000E+00  0.00000000E+00
  0.00000000E+00  0.00000000E+00  0.00000000E+00
  0.00000000E+00  0.00000000E+00  0.00000000E+00
  0.00000000E+00  0.00000000E+00  0.00000000E+00
  0.00000000E+00  0.00000000E+00  0.00000000E+00
  0.00000000E+00  0.00000000E+00  0.00000000E+00
  0.00000000E+00  0.00000000E+00  0.00000000E+00
  0.00000000E+00  0.00000000E+00  0.00000000E+00
  0.00000000E+00  0.00000000E+00  0.00000000E+00
  0.00000000E+00  0.00000000E+00  0.00000000E+00
  0.00000000E+00  0.00000000E+00  0.00000000E+00
  0.00000000E+00  0.00000000E+00  0.00000000E+00
  0.00000000E+00  0.00000000E+00  0.00000000E+00
  0.00000000E+00  0.00000000E+00  0.00000000E+00
  0.00000000E+00  0.00000000E+00  0.00000000E+00
  0.00000000E+00  0.00000000E+00  0.00000000E+00
  0.00000000E+00  0.00000000E+00  0.00000000E+00
  0.00000000E+00  0.00000000E+00  0.00000000E+00
  0.00000000E+00  0.00000000E+00  0.00000000E+00
  0.00000000E+00  0.00000000E+00  0.00000000E+00
  0.00000000E+00  0.00000000E+00  0.00000000E+00
  0.00000000E+00  0.00000000E+00  0.00000000E+00
  0.00000000E+00  0.00000000E+00  0.00000000E+00
  0.00000000E+00  0.00000000E+00  0.00000000E+00
  0.00000000E+00  0.00000000E+00  0.00000000E+00
  0.00000000E+00  0.00000000E+00  0.00000000E+00
  0.00000000E+00  0.00000000E+00  0.00000000E+00
  0.00000000E+00  0.00000000E+00  0.00000000E+00
  0.00000000E+00  0.00000000E+00  0.00000000E+00
  0.00000000E+00  0.00000000E+00  0.00000000E+00
  0.00000000E+00  0.00000000E+00  0.00000000E+00
  0.00000000E+00  0.00000000E+00  0.00000000E+00
  0.00000000E+00  0.00000000E+00  0.00000000E+00
  0.00000000E+00  0.00000000E+00  0.00000000E+00
  0.00000000E+00  0.00000000E+00  0.00000000E+00
  0.00000000E+00  0.00000000E+00  0.00000000E+00
  0.00000000E+00  0.00000000E+00  0.00000000E+00
  0.00000000E+00  0.00000000E+00  0.00000000E+00
  0.00000000E+00  0.00000000E+00  0.00000000E+00
  0.00000000E+00  0.00000000E+00  0.00000000E+00
  0.00000000E+00  0.00000000E+00  0.00000000E+00
  0.00000000E+00  0.00000000E+00  0.00000000E+00
  0.00000000E+00  0.00000000E+00  0.00000000E+00
  0.00000000E+00  0.00000000E+00  0.00000000E+00
  0.00000000E+00  0.00000000E+00  0.00000000E+00
  0.00000000E+00  0.00000000E+00  0.00000000E+00
  0.00000000E+00  0.00000000E+00  0.00000000E+00
  0.00000000E+00  0.00000000E+00  0.00000000E+00
  0.00000000E+00  0.00000000E+00  0.00000000E+00
  0.00000000E+00  0.00000000E+00  0.00000000E+00
  0.00000000E+00  0.00000000E+00  0.00000000E+00
  0.00000000E+00  0.00000000E+00  0.00000000E+00
  0.00000000E+00  0.00000000E+00  0.00000000E+00
  0.00000000E+00  0.00000000E+00  0.00000000E+00
  0.00000000E+00  0.00000000E+00  0.00000000E+00
  0.00000000E+00  0.00000000E+00  0.00000000E+00
  0.00000000E+00  0.00000000E+00  0.00000000E+00
  0.00000000E+00  0.00000000E+00  0.00000000E+00
  0.00000000E+00  0.00000000E+00  0.00000000E+00
  0.00000000E+00  0.00000000E+00  0.00000000E+00
  0.00000000E+00  0.00000000E+00  0.00000000E+00
  0.00000000E+00  0.00000000E+00  0.00000000E+00
  0.00000000E+00  0.00000000E+00  0.00000000E+00
  0.00000000E+00  0.00000000E+00  0.00000000E+00
  0.00000000E+00  0.00000000E+00  0.00000000E+00
  0.00000000E+00  0.00000000E+00  0.00000000E+00
  0.00000000E+00  0.00000000E+00  0.00000000E+00
  0.00000000E+00  0.00000000E+00  0.00000000E+00
  0.00000000E+00  0.00000000E+00  0.00000000E+00
  0.00000000E+00  0.00000000E+00  0.00000000E+00
  0.00000000E+00  0.00000000E+00  0.00000000E+00
  0.00000000E+00  0.00000000E+00  0.00000000E+00
  0.00000000E+00  0.00000000E+00  0.00000000E+00
  0.00000000E+00  0.00000000E+00  0.00000000E+00
  0.00000000E+00  0.00000000E+00  0.00000000E+00
  0.00000000E+00  0.00000000E+00  0.00000000E+00
  0.00000000E+00  0.00000000E+00  0.00000000E+00
  0.00000000E+00  0.00000000E+00  0.00000000E+00
  0.00000000E+00  0.00000000E+00  0.00000000E+00
  0.00000000E+00  0.00000000E+00  0.00000000E+00
  0.00000000E+00  0.00000000E+00  0.00000000E+00
  0.00000000E+00  0.00000000E+00  0.00000000E+00
  0.00000000E+00  0.00000000E+00  0.00000000E+00
  0.00000000E+00  0.00000000E+00  0.00000000E+00
  0.00000000E+00  0.00000000E+00  0.00000000E+00
  0.00000000E+00  0.00000000E+00  0.00000000E+00
  0.00000000E+00  0.00000000E+00  0.00000000E+00
  0.00000000E+00  0.00000000E+00  0.00000000E+00
  0.00000000E+00  0.00000000E+00  0.00000000E+00
  0.00000000E+00  0.00000000E+00  0.00000000E+00
  0.00000000E+00  0.00000000E+00  0.00000000E+00
  0.00000000E+00  0.00000000E+00  0.00000000E+00
  0.00000000E+00  0.00000000E+00  0.00000000E+00
  0.00000000E+00  0.00000000E+00  0.00000000E+00
  0.00000000E+00  0.00000000E+00  0.00000000E+00
  0.00000000E+00  0.00000000E+00  0.00000000E+00
  0.00000000E+00  0.00000000E+00  0.00000000E+00
  0.00000000E+00  0.00000000E+00  0.00000000E+00
  0.00000000E+00  0.00000000E+00  0.00000000E+00
  0.00000000E+00  0.00000000E+00  0.00000000E+00
  0.00000000E+00  0.00000000E+00  0.00000000E+00
  0.00000000E+00  0.00000000E+00  0.00000000E+00
  0.00000000E+00  0.00000000E+00  0.00000000E+00
  0.00000000E+00  0.00000000E+00  0.00000000E+00
  0.00000000E+00  0.00000000E+00  0.00000000E+00
  0.00000000E+00  0.00000000E+00  0.00000000E+00
  0.00000000E+00  0.00000000E+00  0.00000000E+00
  0.00000000E+00  0.00000000E+00  0.00000000E+00
  0.00000000E+00  0.00000000E+00  0.00000000E+00
  0.00000000E+00  0.00000000E+00  0.00000000E+00
