Na  O Cl 
 1.0000000000000000
     0.0000000000000000    4.4573784449999998    0.0000000000000000
    -4.4573784449999998    0.0000000000000000    0.0000000000000000
     0.0000000000000000    0.0000000000000000   27.6008242257378456
 Na  O   Cl 
  12   4   4
Cartesian
 -0.0000004457378445  2.2286899999999998  6.0000000000000009
 -2.2286899999999998  2.2286899999999998  8.2286888907378462
 -2.2286899999999998  0.0000004457378445  6.0000000000000009
 -0.0000004457378445  2.2286899999999998 10.4573784449999998
 -2.2286899999999998  2.2286899999999998 12.6860673357378460
 -2.2286899999999998  0.0000004457378445 10.4573784449999998
 -0.0000004457378445  2.2286899999999998 14.9147568899999996
 -2.2286899999999998  2.2286899999999998 17.1434457807378458
 -2.2286899999999998  0.0000004457378445 14.9147568899999996
 -0.0000004457378445  2.2286899999999998 19.3721353349999994
 -2.2286899999999998  2.2286899999999998 21.6008242257378456
 -2.2286899999999998  0.0000004457378445 19.3721353349999994
 -2.2286899999999998  2.2286899999999998  6.0000000000000009
 -2.2286899999999998  2.2286899999999998 10.4573784449999998
 -2.2286899999999998  2.2286899999999998 14.9147568899999996
 -2.2286899999999998  2.2286899999999998 19.3721353349999994
 -0.0000004457378445  0.0000004457378445  8.2286888907378462
 -0.0000004457378445  0.0000004457378445 12.6860673357378460
 -0.0000004457378445  0.0000004457378445 17.1434457807378458
 -0.0000004457378445  0.0000004457378445 21.6008242257378456
