Na                                      
   1.00000000000000     
     4.1954520235956050    0.0000000000000000   -0.0000000000000000
    -0.0000000000000000    4.1954520235956050    0.0000000000000000
     0.0000000000000000    0.0000000000000000    4.1954520235956050
   Na
     2
Direct
 -0.0000000000000000 -0.0000000000000000 -0.0000000000000000
  0.5000000000000000  0.5000000000000000  0.5000000000000000
 
  0.00000000E+00  0.00000000E+00  0.00000000E+00
  0.00000000E+00  0.00000000E+00  0.00000000E+00
