Cl Na  O                                
   1.00000000000000     
    -8.9073273000000004    8.9073273000000004    0.0000000000000000
   -17.8146546000000008    0.0000000000000000    0.0000000000000000
     0.0000000000000000    0.0000000000000000   42.2854236549156042
   Cl   Na   O 
    32   204    32
Direct
  0.1922285471772156  0.0304444239798514  0.0769693033797694
  0.1922315071772118  0.0304419639798539  0.1845063901198358
  0.1922326371772130  0.0304423739798523  0.2912352184614591
  0.1922322271772146  0.0304427739798570  0.3968020953962963
  0.1922517471772167  0.2804232139798515  0.0769998509885852
  0.1922321271772134  0.2804427439798545  0.1845075062824648
  0.1922322271772146  0.2804429439798568  0.2912103691565946
  0.1922323071772141  0.2804427539798553  0.3968705076800632
  0.1922301971772171  0.5304421339798537  0.0769699038883189
  0.1922322071772129  0.5304424539798518  0.1845064097016405
  0.1922326271772121  0.5304425039798559  0.2912351662433252
  0.1922322171772137  0.5304428139798532  0.3968021149781009
  0.1922516771772109  0.7804222239798548  0.0769998640431240
  0.1922314571772148  0.7804439439798543  0.1845072647735932
  0.1922386871772161  0.7804377239798512  0.2912048927797102
  0.1922322271772146  0.7804427939798515  0.3968704619891952
  0.6922303571772161  0.0304422939798528  0.0769697863975125
  0.6922324771772139  0.0304426339798525  0.1845063640107725
  0.6922328571772169  0.0304424539798518  0.2912352249887249
  0.6922321871772112  0.0304427839798578  0.3968020953962963
  0.6922515271772127  0.2804223139798552  0.0769998836249215
  0.6922314871772173  0.2804439239798526  0.1845073169917271
  0.6922385771772142  0.2804377739798554  0.2912048862524443
  0.6922322071772129  0.2804428239798540  0.3968704685164610
  0.6922289671772148  0.5304443139798565  0.0769694404523733
  0.6922318471772115  0.5304420739798559  0.1845064488652355
  0.6922326371772130  0.5304425439798521  0.2912351727705911
  0.6922320971772109  0.5304428239798540  0.3968021019235621
  0.6922524471772107  0.7804225339798521  0.0769999097339920
  0.6922307771772154  0.7804446239798537  0.1845077282095389
  0.6922386971772170  0.7804376539798525  0.2912049254160465
  0.6922321671772167  0.7804428739798510  0.3968704685164610
  0.4422293771772132  0.0304411639798516  0.0777627383552186
  0.1920158671772114  0.1554170239798580  0.0236958923632642
  0.4422376071772121  0.0304386639798579  0.1845850306307426
  0.1922110571772109  0.1566870639798523  0.1311817661676926
  0.4422334671772106  0.0304422439798557  0.2912984219862835
  0.1920416771772153  0.1552284739798537  0.2379858604232652
  0.4422350471772134  0.0304405639798517  0.3972208652550435
  0.1922087871772149  0.1545524539798535  0.3449084767901383
  0.4420961671772119  0.1554159739798564  0.0236584323788591
  0.4422386171772104  0.2804374239798548  0.0777903682757568
  0.1924863971772126  0.4054440139798530  0.0236994170873572
  0.4448696371772130  0.1540831439798538  0.1310452418544372
  0.4422339971772118  0.2804412239798566  0.1845541827676485
  0.1922511871772130  0.4041980639798552  0.1311823927853055
  0.4417976471772107  0.1556314239798553  0.2379491053836773
  0.4422343971772165  0.2804412939798553  0.2913395111310493
  0.1924289871772160  0.4056492239798573  0.2379842612428860
  0.4405282771772150  0.1562794239798535  0.3447973174358339
  0.4422341971772141  0.2804409839798510  0.3972887879938014
  0.1922579271772165  0.4063326739798541  0.3449083136084710
  0.4423815371772122  0.4054516939798560  0.0236488568784026
  0.4422380971772171  0.5304378739798565  0.0777637304997754
  0.1920175771772108  0.6554169439798514  0.0236955529453837
  0.4395891771772114  0.4068004939798513  0.1310450917272945
  0.4422223771772167  0.5304477739798514  0.1845867668837258
  0.1922114671772164  0.6566867939798513  0.1311819750402279
  0.4426687471772155  0.4052541039798569  0.2379497842194311
  0.4422332571772145  0.5304424539798518  0.2912988136222978
  0.1920405071772109  0.6552283039798539  0.2379865000954098
  0.4439388071772115  0.4046049939798522  0.3447974740902353
  0.4422350971772104  0.5304405039798539  0.3972210219094521
  0.1922087671772132  0.6545523739798540  0.3449085681718742
  0.4420971071772115  0.6554158839798561  0.0236588044330688
  0.4422235471772140  0.7804458439798552  0.0777916410927944
  0.1924862871772106  0.9054445439798542  0.0236996194326267
  0.4448801471772157  0.6540762939798554  0.1310444716369474
  0.4422403071772152  0.7804395639798543  0.1845549790942016
  0.1922473871772112  0.9041936139798565  0.1311908194867968
  0.4417987471772165  0.6556310839798556  0.2379497385285632
  0.4422341871772133  0.7804422039798524  0.2913394523856496
  0.1924292471772162  0.9056493139798576  0.2379846202425639
  0.4405284271772132  0.6562793739798565  0.3447974022902969
  0.4422341971772141  0.7804410339798551  0.3972887814665285
  0.1922581171772109  0.9063328739798564  0.3449083788811365
  0.4423807571772116  0.9054519239798537  0.0236489090965364
  0.4395904871772132  0.9068001239798562  0.1310454703087771
  0.4426689371772170  0.9052546839798552  0.2379489944201438
  0.4439387271772119  0.9046051239798558  0.3447973304903655
  0.9422379471772118  0.0304380339798556  0.0777636848089074
  0.6920176671772111  0.1554168339798565  0.0236955398908520
  0.9422223371772134  0.0304477739798514  0.1845867473019212
  0.6922119671772151  0.1566865139798566  0.1311819750402279
  0.9422333971772119  0.0304422839798519  0.2912988070950249
  0.6920407471772165  0.1552277639798518  0.2379866306407479
  0.9422351471772146  0.0304404939798530  0.3972210153821862
  0.6922087771772141  0.1545523139798561  0.3449085746991400
  0.9420972971772130  0.1554157439798516  0.0236588305421392
  0.9422244571772111  0.2804448939798547  0.0777916541473260
  0.6924863771772110  0.4054444039798568  0.0236996390144313
  0.9448802371772160  0.1540759439798549  0.1310445042732837
  0.9422417271772119  0.2804382739798541  0.1845549856214745
  0.6922476371772106  0.4041930739798545  0.1311909565594007
  0.9417997171772114  0.1556304339798515  0.2379499082374963
  0.9422351871772108  0.2804412639798528  0.2913395764037219
  0.6924296771772163  0.4056491139798553  0.2379846528788931
  0.9405284671772165  0.1562793539798548  0.3447973892357652
  0.9422343371772115  0.2804408939798577  0.3972887879938014
  0.6922581871772167  0.4063327639798544  0.3449084441538091
  0.9423809271772114  0.4054518539798551  0.0236489156238022
  0.9422295671772147  0.5304409839798581  0.0777629341732222
  0.6920159671772126  0.6554170639798542  0.0236958858359984
  0.9395881571772122  0.4068011439798553  0.1310450068728315
  0.9422374971772172  0.5304387139798550  0.1845853047759505
  0.6922108371772140  0.6566873339798533  0.1311815899314865
  0.9426691171772106  0.4052543839798517  0.2379495818741546
  0.9422332371772129  0.5304424339798572  0.2912985982224896
  0.6920415971772158  0.6552275539798558  0.2379866959134205
  0.9439390871772133  0.4046049239798535  0.3447973892357652
  0.9422352671772103  0.5304404439798560  0.3972209696913183
  0.6922088571772136  0.6545523239798570  0.3449085746991400
  0.9420960671772107  0.6554159739798564  0.0236584715424613
  0.9422376671772170  0.7804383639798544  0.0777903095303571
  0.6924864471772167  0.9054440639798571  0.0236993844510209
  0.9448693371772166  0.6540835439798514  0.1310450721454970
  0.9422325471772126  0.7804425239798576  0.1845541827676485
  0.6922512071772147  0.9041971039798540  0.1311827778940540
  0.9417992671772168  0.6556307239798542  0.2379499474010984
  0.9422334171772135  0.7804422239798541  0.2913394589129155
  0.6924249471772157  0.9056578539798537  0.2379855601689869
  0.9405282071772163  0.6562794239798535  0.3447974022902969
  0.9422342871772145  0.7804409539798556  0.3972887945210672
  0.6922579571772118  0.9063329039798518  0.3449083136084710
  0.9423814671772135  0.9054517739798555  0.0236488111875346
  0.9395881871772147  0.9068011739798578  0.1310449350728931
  0.9426686671772160  0.9052543639798571  0.2379497776921653
  0.9439385371772104  0.9046051339798566  0.3447974349266332
  0.1995489741251077  0.0573272810858185  0.4896270445393682
  0.1991404241251047  0.2244305510858169  0.4421799154939450
  0.1996326641251045  0.0572520410858175  0.5863740908664781
  0.1997163541251084  0.2239109410858120  0.5359983276136759
  0.1992158441251064  0.0575253010858177  0.6847549837531588
  0.1993837341251066  0.2240874110858186  0.6362599788572325
  0.1991309941251060  0.0576597610858158  0.7823262445036008
  0.1991745541251078  0.2242523910858125  0.7338838287431244
  0.1992596941251037  0.0574887110858171  0.8824977476834235
  0.1993704541251020  0.2242349210858166  0.8322318243882947
  0.1991356641251016  0.0576145010858156  0.9762010526371299
  0.1993684541251071  0.2240458410858182  0.9289175969072687
  0.5321715641251075  0.0564174010858167  0.4898429088392007
  0.5332366941251081  0.2232670810858153  0.4422492269790865
  0.5316760741251016  0.0565760410858189  0.5866247021518589
  0.5336946941251028  0.2220425810858160  0.5366363400003209
  0.5330273741251048  0.0555833410858142  0.6844038641784636
  0.5327740941251022  0.2225951610858132  0.6357825458196658
  0.5319731741251061  0.0564250210858148  0.7827464516033942
  0.5330043941251077  0.2222007210858123  0.7342197936884034
  0.5334447041251025  0.0554851210858160  0.8819131539138567
  0.5318187641251058  0.2229550710858135  0.8318607640751736
  0.5335606341251022  0.0565321110858150  0.9763128501714462
  0.5325056741251046  0.2229109610858160  0.9286140398093323
  0.1995409441251041  0.3906564210858150  0.4896164769433824
  0.1990356141251013  0.5579486310858144  0.4422210494880545
  0.1994814541251060  0.3907035810858162  0.5863987679450204
  0.1997211341251059  0.5572695210858143  0.5359963949214688
  0.1992793941251065  0.3908589610858186  0.6847056876597861
  0.1995059541251081  0.5573910810858180  0.6362649889262926
  0.1991546041251055  0.3909585510858165  0.7823426267658249
  0.1991860641251080  0.5576403010858186  0.7338505831193274
  0.1993864941251076  0.3907377410858146  0.8824572026212678
  0.1991422941251031  0.5576840210858123  0.8322667040909053
  0.1994397041251048  0.3907073810858179  0.9762240790472276
  0.1994253141251079  0.5573710010858122  0.9289361607061863
  0.8668464941251059  0.0584301410858146  0.4898324158965579
  0.8652310841251065  0.2250038510858161  0.4422761934269346
  0.8675055941251060  0.0579593110858170  0.5866198579791302
  0.8652937741251066  0.2258194810858143  0.5366656455863676
  0.8654366741251067  0.0592869810858190  0.6843809290113470
  0.8662563641251069  0.2252596310858124  0.6358151195633468
  0.8660411541251065  0.0585395810858174  0.7828477893743369
  0.8653910941251013  0.2260060010858140  0.7342640963023541
  0.8654063241251038  0.0591084010858154  0.8819134608220622
  0.8673023241251059  0.2247849210858135  0.8319965004493852
  0.8655510841251015  0.0580366710858158  0.9763511888124654
  0.8661518641251078  0.2251482010858155  0.9287431818045704
  0.5321468441251014  0.3897480810858127  0.4898490055291944
  0.5338193941251035  0.5562934010858172  0.4423118196630114
  0.5317223841251035  0.3899033010858162  0.5866294384919755
  0.5340038041251063  0.5553236210858188  0.5365911249565798
  0.5331733341251024  0.3888284210858188  0.6843301813251230
  0.5331737541251016  0.5561217310858169  0.6358472370921220
  0.5323163441251069  0.3894609510858160  0.7828247463746081
  0.5332294341251043  0.5553232110858133  0.7342015119132412
  0.5334670541251043  0.3889294710858167  0.8819387351273846
  0.5317834441251037  0.5563220910858178  0.8319571913148565
  0.5333926141251055  0.3899670510858186  0.9763124437254476
  0.5323240341251037  0.5563090210858164  0.9287285248641410
  0.1995059941251043  0.7240757610858140  0.4896443392313898
  0.1989511241251023  0.8911952410858177  0.4422260097882145
  0.1997804841251067  0.7238235710858163  0.5863914850962928
  0.1997469541251036  0.8904816310858124  0.5360342192838772
  0.1992510341251048  0.7241141410858134  0.6847325130957600
  0.1996035541251047  0.8905907910858133  0.6363022492411829
  0.1992913641251022  0.7243098710858149  0.7823203468891933
  0.1992977241251026  0.8909503410858122  0.7338953668326198
  0.1995867841251027  0.7241133110858158  0.8825301223515112
  0.1992537841251050  0.8909437110858178  0.8322250060492777
  0.1990941641251069  0.7241663210858178  0.9762176505645783
  0.1994698341251038  0.8906798110858176  0.9289062413037286
  0.8669455541251025  0.3916732810858150  0.4898596560733424
  0.8653185141251072  0.5584026410858129  0.4422814689301120
  0.8675145441251075  0.3914612610858157  0.5865913321058187
  0.8652792841251014  0.5592713410858181  0.5366902314219288
  0.8657099041251044  0.3925944610858139  0.6843867685620353
  0.8661428041251042  0.5587591410858153  0.6358242438612933
  0.8660500841251064  0.3916407610858172  0.7828765392076917
  0.8654317441251038  0.5593115710858143  0.7342526909299210
  0.8655950341251071  0.3922949610858169  0.8819731834995466
  0.8672148441251082  0.5580985310858182  0.8319730427088388
  0.8654490741251024  0.3916188910858125  0.9763104197902663
  0.8664302641251069  0.5584388410858168  0.9287131213902384
  0.5323239241251017  0.7231359710858172  0.4898880243451487
  0.5334771841251040  0.8897712310858168  0.4422611881042116
  0.5318407141251029  0.7231586610858187  0.5866214339942317
  0.5339060941251077  0.8886963510858124  0.5366039570374213
  0.5328580441251063  0.7224052610858180  0.6844301753358195
  0.5328363541251022  0.8893549110858174  0.6358193830989336
  0.5323354041251065  0.7228184710858159  0.7828214948066119
  0.5331687141251038  0.8887879310858153  0.7341806670398370
  0.5334123941251079  0.7223303610858167  0.8819085088167213
  0.5314110941251045  0.8898991810858163  0.8318882696860825
  0.5334804041251076  0.7231966810858168  0.9763314803288949
  0.5323549141251078  0.8896351810858150  0.9286969464984196
  0.8668721141251012  0.7251109210858147  0.4898534764351865
  0.8652725941251020  0.8916486610858172  0.4422795528275429
  0.8674438641251072  0.7247923110858139  0.5866259546691239
  0.8651356541251047  0.8925097510858180  0.5366940470374360
  0.8655910441251038  0.7259934610858139  0.6844090235542168
  0.8662189341251079  0.8920066610858157  0.6358181056972185
  0.8659275541251077  0.7251782010858179  0.7828432272253636
  0.8655356441251030  0.8924829110858141  0.7342727892698520
  0.8652611241251051  0.7258120510858177  0.8819510446347962
  0.8671872341251046  0.8914566610858188  0.8319796204981742
  0.8655581441251030  0.7247810910858163  0.9763468257390855
  0.8660444741251041  0.8920255910858117  0.9287054735696003
  0.4422659071772159  0.0304211139798554  0.0247629046738354
  0.4422332871772170  0.0304398839798523  0.1311997814241721
  0.4422335671772117  0.0304424439798510  0.2379647120786927
  0.4422343871772156  0.0304412939798553  0.3447528928577057
  0.4422668671772172  0.2804218739798543  0.0247694123588786
  0.4422321771772104  0.2804409539798556  0.1312031168575274
  0.4422338371772128  0.2804418539798519  0.2379584002116601
  0.4422343271772107  0.2804416239798542  0.3448001567969072
  0.4422664371772171  0.5304209739798509  0.0247633876915856
  0.4422314471772140  0.5304399339798564  0.1312008518959331
  0.4422337671772141  0.5304419539798531  0.2379656324233181
  0.4422342871772145  0.5304413539798531  0.3447530690939118
  0.4422659071772159  0.7804226039798579  0.0247700389764915
  0.4422293771772132  0.7804416739798512  0.1312039654022215
  0.4422341771772125  0.7804423239798552  0.2379586221387342
  0.4422339271772131  0.7804418939798552  0.3448001372151026
  0.9422664471772109  0.0304209639798572  0.0247633615825151
  0.9422315171772127  0.0304398539798569  0.1312008388414014
  0.9422336171772159  0.0304420939798575  0.2379656258960523
  0.9422343171772170  0.0304413039798561  0.3447530625666460
  0.9422659171772167  0.2804225739798554  0.0247700585582962
  0.9422296171772118  0.2804412739798536  0.1312039915112848
  0.9422349671772139  0.2804417439798570  0.2379586808841339
  0.9422339371772139  0.2804416139798533  0.3448002024877752
  0.9422658871772143  0.5304211339798570  0.0247630091101030
  0.9422330771772138  0.5304400739798538  0.1311998858604397
  0.9422343071772161  0.5304416739798512  0.2379650776056366
  0.9422338771772161  0.5304417839798532  0.3447530886757093
  0.9422668171772131  0.7804219039798568  0.0247693927770740
  0.9422317771772128  0.7804413639798540  0.1312030711666594
  0.9422337171772170  0.7804424039798548  0.2379583479935263
  0.9422338571772144  0.7804418939798552  0.3448001437423756
 
  0.00000000E+00  0.00000000E+00  0.00000000E+00
  0.00000000E+00  0.00000000E+00  0.00000000E+00
  0.00000000E+00  0.00000000E+00  0.00000000E+00
  0.00000000E+00  0.00000000E+00  0.00000000E+00
  0.00000000E+00  0.00000000E+00  0.00000000E+00
  0.00000000E+00  0.00000000E+00  0.00000000E+00
  0.00000000E+00  0.00000000E+00  0.00000000E+00
  0.00000000E+00  0.00000000E+00  0.00000000E+00
  0.00000000E+00  0.00000000E+00  0.00000000E+00
  0.00000000E+00  0.00000000E+00  0.00000000E+00
  0.00000000E+00  0.00000000E+00  0.00000000E+00
  0.00000000E+00  0.00000000E+00  0.00000000E+00
  0.00000000E+00  0.00000000E+00  0.00000000E+00
  0.00000000E+00  0.00000000E+00  0.00000000E+00
  0.00000000E+00  0.00000000E+00  0.00000000E+00
  0.00000000E+00  0.00000000E+00  0.00000000E+00
  0.00000000E+00  0.00000000E+00  0.00000000E+00
  0.00000000E+00  0.00000000E+00  0.00000000E+00
  0.00000000E+00  0.00000000E+00  0.00000000E+00
  0.00000000E+00  0.00000000E+00  0.00000000E+00
  0.00000000E+00  0.00000000E+00  0.00000000E+00
  0.00000000E+00  0.00000000E+00  0.00000000E+00
  0.00000000E+00  0.00000000E+00  0.00000000E+00
  0.00000000E+00  0.00000000E+00  0.00000000E+00
  0.00000000E+00  0.00000000E+00  0.00000000E+00
  0.00000000E+00  0.00000000E+00  0.00000000E+00
  0.00000000E+00  0.00000000E+00  0.00000000E+00
  0.00000000E+00  0.00000000E+00  0.00000000E+00
  0.00000000E+00  0.00000000E+00  0.00000000E+00
  0.00000000E+00  0.00000000E+00  0.00000000E+00
  0.00000000E+00  0.00000000E+00  0.00000000E+00
  0.00000000E+00  0.00000000E+00  0.00000000E+00
  0.00000000E+00  0.00000000E+00  0.00000000E+00
  0.00000000E+00  0.00000000E+00  0.00000000E+00
  0.00000000E+00  0.00000000E+00  0.00000000E+00
  0.00000000E+00  0.00000000E+00  0.00000000E+00
  0.00000000E+00  0.00000000E+00  0.00000000E+00
  0.00000000E+00  0.00000000E+00  0.00000000E+00
  0.00000000E+00  0.00000000E+00  0.00000000E+00
  0.00000000E+00  0.00000000E+00  0.00000000E+00
  0.00000000E+00  0.00000000E+00  0.00000000E+00
  0.00000000E+00  0.00000000E+00  0.00000000E+00
  0.00000000E+00  0.00000000E+00  0.00000000E+00
  0.00000000E+00  0.00000000E+00  0.00000000E+00
  0.00000000E+00  0.00000000E+00  0.00000000E+00
  0.00000000E+00  0.00000000E+00  0.00000000E+00
  0.00000000E+00  0.00000000E+00  0.00000000E+00
  0.00000000E+00  0.00000000E+00  0.00000000E+00
  0.00000000E+00  0.00000000E+00  0.00000000E+00
  0.00000000E+00  0.00000000E+00  0.00000000E+00
  0.00000000E+00  0.00000000E+00  0.00000000E+00
  0.00000000E+00  0.00000000E+00  0.00000000E+00
  0.00000000E+00  0.00000000E+00  0.00000000E+00
  0.00000000E+00  0.00000000E+00  0.00000000E+00
  0.00000000E+00  0.00000000E+00  0.00000000E+00
  0.00000000E+00  0.00000000E+00  0.00000000E+00
  0.00000000E+00  0.00000000E+00  0.00000000E+00
  0.00000000E+00  0.00000000E+00  0.00000000E+00
  0.00000000E+00  0.00000000E+00  0.00000000E+00
  0.00000000E+00  0.00000000E+00  0.00000000E+00
  0.00000000E+00  0.00000000E+00  0.00000000E+00
  0.00000000E+00  0.00000000E+00  0.00000000E+00
  0.00000000E+00  0.00000000E+00  0.00000000E+00
  0.00000000E+00  0.00000000E+00  0.00000000E+00
  0.00000000E+00  0.00000000E+00  0.00000000E+00
  0.00000000E+00  0.00000000E+00  0.00000000E+00
  0.00000000E+00  0.00000000E+00  0.00000000E+00
  0.00000000E+00  0.00000000E+00  0.00000000E+00
  0.00000000E+00  0.00000000E+00  0.00000000E+00
  0.00000000E+00  0.00000000E+00  0.00000000E+00
  0.00000000E+00  0.00000000E+00  0.00000000E+00
  0.00000000E+00  0.00000000E+00  0.00000000E+00
  0.00000000E+00  0.00000000E+00  0.00000000E+00
  0.00000000E+00  0.00000000E+00  0.00000000E+00
  0.00000000E+00  0.00000000E+00  0.00000000E+00
  0.00000000E+00  0.00000000E+00  0.00000000E+00
  0.00000000E+00  0.00000000E+00  0.00000000E+00
  0.00000000E+00  0.00000000E+00  0.00000000E+00
  0.00000000E+00  0.00000000E+00  0.00000000E+00
  0.00000000E+00  0.00000000E+00  0.00000000E+00
  0.00000000E+00  0.00000000E+00  0.00000000E+00
  0.00000000E+00  0.00000000E+00  0.00000000E+00
  0.00000000E+00  0.00000000E+00  0.00000000E+00
  0.00000000E+00  0.00000000E+00  0.00000000E+00
  0.00000000E+00  0.00000000E+00  0.00000000E+00
  0.00000000E+00  0.00000000E+00  0.00000000E+00
  0.00000000E+00  0.00000000E+00  0.00000000E+00
  0.00000000E+00  0.00000000E+00  0.00000000E+00
  0.00000000E+00  0.00000000E+00  0.00000000E+00
  0.00000000E+00  0.00000000E+00  0.00000000E+00
  0.00000000E+00  0.00000000E+00  0.00000000E+00
  0.00000000E+00  0.00000000E+00  0.00000000E+00
  0.00000000E+00  0.00000000E+00  0.00000000E+00
  0.00000000E+00  0.00000000E+00  0.00000000E+00
  0.00000000E+00  0.00000000E+00  0.00000000E+00
  0.00000000E+00  0.00000000E+00  0.00000000E+00
  0.00000000E+00  0.00000000E+00  0.00000000E+00
  0.00000000E+00  0.00000000E+00  0.00000000E+00
  0.00000000E+00  0.00000000E+00  0.00000000E+00
  0.00000000E+00  0.00000000E+00  0.00000000E+00
  0.00000000E+00  0.00000000E+00  0.00000000E+00
  0.00000000E+00  0.00000000E+00  0.00000000E+00
  0.00000000E+00  0.00000000E+00  0.00000000E+00
  0.00000000E+00  0.00000000E+00  0.00000000E+00
  0.00000000E+00  0.00000000E+00  0.00000000E+00
  0.00000000E+00  0.00000000E+00  0.00000000E+00
  0.00000000E+00  0.00000000E+00  0.00000000E+00
  0.00000000E+00  0.00000000E+00  0.00000000E+00
  0.00000000E+00  0.00000000E+00  0.00000000E+00
  0.00000000E+00  0.00000000E+00  0.00000000E+00
  0.00000000E+00  0.00000000E+00  0.00000000E+00
  0.00000000E+00  0.00000000E+00  0.00000000E+00
  0.00000000E+00  0.00000000E+00  0.00000000E+00
  0.00000000E+00  0.00000000E+00  0.00000000E+00
  0.00000000E+00  0.00000000E+00  0.00000000E+00
  0.00000000E+00  0.00000000E+00  0.00000000E+00
  0.00000000E+00  0.00000000E+00  0.00000000E+00
  0.00000000E+00  0.00000000E+00  0.00000000E+00
  0.00000000E+00  0.00000000E+00  0.00000000E+00
  0.00000000E+00  0.00000000E+00  0.00000000E+00
  0.00000000E+00  0.00000000E+00  0.00000000E+00
  0.00000000E+00  0.00000000E+00  0.00000000E+00
  0.00000000E+00  0.00000000E+00  0.00000000E+00
  0.00000000E+00  0.00000000E+00  0.00000000E+00
  0.00000000E+00  0.00000000E+00  0.00000000E+00
  0.00000000E+00  0.00000000E+00  0.00000000E+00
  0.00000000E+00  0.00000000E+00  0.00000000E+00
  0.00000000E+00  0.00000000E+00  0.00000000E+00
  0.00000000E+00  0.00000000E+00  0.00000000E+00
  0.00000000E+00  0.00000000E+00  0.00000000E+00
  0.00000000E+00  0.00000000E+00  0.00000000E+00
  0.00000000E+00  0.00000000E+00  0.00000000E+00
  0.00000000E+00  0.00000000E+00  0.00000000E+00
  0.00000000E+00  0.00000000E+00  0.00000000E+00
  0.00000000E+00  0.00000000E+00  0.00000000E+00
  0.00000000E+00  0.00000000E+00  0.00000000E+00
  0.00000000E+00  0.00000000E+00  0.00000000E+00
  0.00000000E+00  0.00000000E+00  0.00000000E+00
  0.00000000E+00  0.00000000E+00  0.00000000E+00
  0.00000000E+00  0.00000000E+00  0.00000000E+00
  0.00000000E+00  0.00000000E+00  0.00000000E+00
  0.00000000E+00  0.00000000E+00  0.00000000E+00
  0.00000000E+00  0.00000000E+00  0.00000000E+00
  0.00000000E+00  0.00000000E+00  0.00000000E+00
  0.00000000E+00  0.00000000E+00  0.00000000E+00
  0.00000000E+00  0.00000000E+00  0.00000000E+00
  0.00000000E+00  0.00000000E+00  0.00000000E+00
  0.00000000E+00  0.00000000E+00  0.00000000E+00
  0.00000000E+00  0.00000000E+00  0.00000000E+00
  0.00000000E+00  0.00000000E+00  0.00000000E+00
  0.00000000E+00  0.00000000E+00  0.00000000E+00
  0.00000000E+00  0.00000000E+00  0.00000000E+00
  0.00000000E+00  0.00000000E+00  0.00000000E+00
  0.00000000E+00  0.00000000E+00  0.00000000E+00
  0.00000000E+00  0.00000000E+00  0.00000000E+00
  0.00000000E+00  0.00000000E+00  0.00000000E+00
  0.00000000E+00  0.00000000E+00  0.00000000E+00
  0.00000000E+00  0.00000000E+00  0.00000000E+00
  0.00000000E+00  0.00000000E+00  0.00000000E+00
  0.00000000E+00  0.00000000E+00  0.00000000E+00
  0.00000000E+00  0.00000000E+00  0.00000000E+00
  0.00000000E+00  0.00000000E+00  0.00000000E+00
  0.00000000E+00  0.00000000E+00  0.00000000E+00
  0.00000000E+00  0.00000000E+00  0.00000000E+00
  0.00000000E+00  0.00000000E+00  0.00000000E+00
  0.00000000E+00  0.00000000E+00  0.00000000E+00
  0.00000000E+00  0.00000000E+00  0.00000000E+00
  0.00000000E+00  0.00000000E+00  0.00000000E+00
  0.00000000E+00  0.00000000E+00  0.00000000E+00
  0.00000000E+00  0.00000000E+00  0.00000000E+00
  0.00000000E+00  0.00000000E+00  0.00000000E+00
  0.00000000E+00  0.00000000E+00  0.00000000E+00
  0.00000000E+00  0.00000000E+00  0.00000000E+00
  0.00000000E+00  0.00000000E+00  0.00000000E+00
  0.00000000E+00  0.00000000E+00  0.00000000E+00
  0.00000000E+00  0.00000000E+00  0.00000000E+00
  0.00000000E+00  0.00000000E+00  0.00000000E+00
  0.00000000E+00  0.00000000E+00  0.00000000E+00
  0.00000000E+00  0.00000000E+00  0.00000000E+00
  0.00000000E+00  0.00000000E+00  0.00000000E+00
  0.00000000E+00  0.00000000E+00  0.00000000E+00
  0.00000000E+00  0.00000000E+00  0.00000000E+00
  0.00000000E+00  0.00000000E+00  0.00000000E+00
  0.00000000E+00  0.00000000E+00  0.00000000E+00
  0.00000000E+00  0.00000000E+00  0.00000000E+00
  0.00000000E+00  0.00000000E+00  0.00000000E+00
  0.00000000E+00  0.00000000E+00  0.00000000E+00
  0.00000000E+00  0.00000000E+00  0.00000000E+00
  0.00000000E+00  0.00000000E+00  0.00000000E+00
  0.00000000E+00  0.00000000E+00  0.00000000E+00
  0.00000000E+00  0.00000000E+00  0.00000000E+00
  0.00000000E+00  0.00000000E+00  0.00000000E+00
  0.00000000E+00  0.00000000E+00  0.00000000E+00
  0.00000000E+00  0.00000000E+00  0.00000000E+00
  0.00000000E+00  0.00000000E+00  0.00000000E+00
  0.00000000E+00  0.00000000E+00  0.00000000E+00
  0.00000000E+00  0.00000000E+00  0.00000000E+00
  0.00000000E+00  0.00000000E+00  0.00000000E+00
  0.00000000E+00  0.00000000E+00  0.00000000E+00
  0.00000000E+00  0.00000000E+00  0.00000000E+00
  0.00000000E+00  0.00000000E+00  0.00000000E+00
  0.00000000E+00  0.00000000E+00  0.00000000E+00
  0.00000000E+00  0.00000000E+00  0.00000000E+00
  0.00000000E+00  0.00000000E+00  0.00000000E+00
  0.00000000E+00  0.00000000E+00  0.00000000E+00
  0.00000000E+00  0.00000000E+00  0.00000000E+00
  0.00000000E+00  0.00000000E+00  0.00000000E+00
  0.00000000E+00  0.00000000E+00  0.00000000E+00
  0.00000000E+00  0.00000000E+00  0.00000000E+00
  0.00000000E+00  0.00000000E+00  0.00000000E+00
  0.00000000E+00  0.00000000E+00  0.00000000E+00
  0.00000000E+00  0.00000000E+00  0.00000000E+00
  0.00000000E+00  0.00000000E+00  0.00000000E+00
  0.00000000E+00  0.00000000E+00  0.00000000E+00
  0.00000000E+00  0.00000000E+00  0.00000000E+00
  0.00000000E+00  0.00000000E+00  0.00000000E+00
  0.00000000E+00  0.00000000E+00  0.00000000E+00
  0.00000000E+00  0.00000000E+00  0.00000000E+00
  0.00000000E+00  0.00000000E+00  0.00000000E+00
  0.00000000E+00  0.00000000E+00  0.00000000E+00
  0.00000000E+00  0.00000000E+00  0.00000000E+00
  0.00000000E+00  0.00000000E+00  0.00000000E+00
  0.00000000E+00  0.00000000E+00  0.00000000E+00
  0.00000000E+00  0.00000000E+00  0.00000000E+00
  0.00000000E+00  0.00000000E+00  0.00000000E+00
  0.00000000E+00  0.00000000E+00  0.00000000E+00
  0.00000000E+00  0.00000000E+00  0.00000000E+00
  0.00000000E+00  0.00000000E+00  0.00000000E+00
  0.00000000E+00  0.00000000E+00  0.00000000E+00
  0.00000000E+00  0.00000000E+00  0.00000000E+00
  0.00000000E+00  0.00000000E+00  0.00000000E+00
  0.00000000E+00  0.00000000E+00  0.00000000E+00
  0.00000000E+00  0.00000000E+00  0.00000000E+00
  0.00000000E+00  0.00000000E+00  0.00000000E+00
  0.00000000E+00  0.00000000E+00  0.00000000E+00
  0.00000000E+00  0.00000000E+00  0.00000000E+00
  0.00000000E+00  0.00000000E+00  0.00000000E+00
  0.00000000E+00  0.00000000E+00  0.00000000E+00
  0.00000000E+00  0.00000000E+00  0.00000000E+00
  0.00000000E+00  0.00000000E+00  0.00000000E+00
  0.00000000E+00  0.00000000E+00  0.00000000E+00
  0.00000000E+00  0.00000000E+00  0.00000000E+00
  0.00000000E+00  0.00000000E+00  0.00000000E+00
  0.00000000E+00  0.00000000E+00  0.00000000E+00
  0.00000000E+00  0.00000000E+00  0.00000000E+00
  0.00000000E+00  0.00000000E+00  0.00000000E+00
  0.00000000E+00  0.00000000E+00  0.00000000E+00
  0.00000000E+00  0.00000000E+00  0.00000000E+00
  0.00000000E+00  0.00000000E+00  0.00000000E+00
  0.00000000E+00  0.00000000E+00  0.00000000E+00
  0.00000000E+00  0.00000000E+00  0.00000000E+00
  0.00000000E+00  0.00000000E+00  0.00000000E+00
  0.00000000E+00  0.00000000E+00  0.00000000E+00
  0.00000000E+00  0.00000000E+00  0.00000000E+00
  0.00000000E+00  0.00000000E+00  0.00000000E+00
  0.00000000E+00  0.00000000E+00  0.00000000E+00
  0.00000000E+00  0.00000000E+00  0.00000000E+00
  0.00000000E+00  0.00000000E+00  0.00000000E+00
  0.00000000E+00  0.00000000E+00  0.00000000E+00
  0.00000000E+00  0.00000000E+00  0.00000000E+00
  0.00000000E+00  0.00000000E+00  0.00000000E+00
  0.00000000E+00  0.00000000E+00  0.00000000E+00
  0.00000000E+00  0.00000000E+00  0.00000000E+00
  0.00000000E+00  0.00000000E+00  0.00000000E+00
  0.00000000E+00  0.00000000E+00  0.00000000E+00
  0.00000000E+00  0.00000000E+00  0.00000000E+00
  0.00000000E+00  0.00000000E+00  0.00000000E+00
  0.00000000E+00  0.00000000E+00  0.00000000E+00
