Cl Na  O 
 1.0000000000000000
    -8.9073273000000004    8.9073273000000004    0.0000000000000000
   -17.8146546000000008    0.0000000000000000    0.0000000000000000
     0.0000000000000000    0.0000000000000000   42.2854236549156042
 Cl  Na  O  
  32 204  32
Cartesian
 -2.2545994838080006  1.7122425861109354  3.2546796018372746
 -2.2545820254464926  1.7122689517997434  7.8019308732564241
 -2.2545993947347274  1.7122790170795923 12.3150045958746865
 -2.2546028685923747  1.7122753650753992 16.7789447109906931
 -6.7080919349772943  1.7124492361042953  3.2559713204177854
 -6.7082650934200068  1.7122744743426692  7.8019780706660953
 -6.7082695470836562  1.7122753650753992 12.3139538324909203
 -6.7082668748854664  1.7122760776615833 16.7818375533929114
 -11.1619006853390097  1.7122572832009804  3.2547049945956985
 -11.1619242897563566  1.7122751869288533  7.8019317012811484
 -11.1619289215665525  1.7122789280063193 12.3150023878087360
 -11.1619307921052844  1.7122752760021263 16.7789455390154210
 -15.6154009749563301  1.7124486125913843  3.2559718724342730
 -15.6156078030962355  1.7122685064333782  7.8019678583610812
 -15.6155613959210022  1.7123329064097572 12.3137222615744548
 -15.6155941748854659  1.7122753650753992 16.7818356213352047
 -6.7082413108561152  6.1659223583733471  3.2547000264473098
 -6.7082662513725557  6.1659412419072250  7.8019297692234488
 -6.7082664295191012  6.1659446266915978 12.3150048718829268
 -6.7082663404458280  6.1659386587823075 16.7789447109906931
 -11.1617375921761486  6.1661109264922889  3.2559727004590115
 -11.1619440640229612  6.1659324236531976  7.8019700664270317
 -11.1618976568477315  6.1659955766037555 12.3137219855662110
 -11.1619308811785594  6.1659388369288539 16.7818358973434520
 -15.6155922152734590  6.1659099771884005  3.2546853980103947
 -15.6155779635497787  6.1659356302910258  7.8019333573306113
 -15.6155933732260088  6.1659426670795909 12.3150026638169798
 -15.6155935513725552  6.1659378571228505 16.7789449869989369
 -20.0690770061412778  6.1661191212334057  3.2559738044919868
 -20.0692775100787983  6.1659260994508127  7.8019874549463850
 -20.0692238879684517  6.1659966454830304 12.3137236416156739
 -20.0692587156181972  6.1659384806357611 16.7818358973434520
 -4.4813806261156630  3.9390818041925946  3.2882303359167153
 -4.4790487769017968  1.7103481757407712  1.0019908474618120
 -4.4814093967828423  3.9391551114962735  7.8052562205765241
 -4.5034127220456677  1.7120867969564584  5.5470765582008852
 -4.4814362969112889  3.9391182351612515 12.3176771836984322
 -4.4759197218945790  1.7105780738583842 10.0633329318772553
 -4.4814204418686945  3.9391323087383854 16.7966525718817543
 -4.4653651625569903  1.7120665773234873 14.5846010632427259
 -6.7065771548966566  3.9378952591229619  1.0004068361512140
 -8.9350599530117112  3.9391641078968465  3.2893986788122973
 -8.9373844091439203  1.7145393404552403  1.0021398919134086
 -6.7075374538528694  3.9625994641696924  5.5413035697756570
 -8.9350864968470649  3.9391229560447205  7.8039518056167907
 -8.9130931477908177  1.7124442480010074  5.5471030549922773
 -6.7077563068846304  3.9352362437773656 10.0617787294569752
 -8.9350913068038071  3.9391265189756406 12.3194146555925244
 -8.9405287847540933  1.7140279707949473 10.0632653098575418
 -6.7079935090106293  3.9239295497225641 14.5799006428525146
 -8.9350840027954206  3.9391247375101801 16.7995247136656936
 -8.9511805230325230  1.7125042833870092 14.5845941630366305
 -11.1634190283505710  3.9404371431145626  1.0000019320577067
 -13.3887269877960868  3.9391594760866506  3.2882722891697540
 -13.3863898832591133  1.7103634072704543  1.0019764950331336
 -11.1625749700156227  3.9155646786551341  5.5412972215860492
 -13.3887633296914714  3.9390194529014946  7.8053296387693436
 -13.4107388640931156  1.7120904489606514  5.5470853904646873
 -11.1624573042219879  3.9429954165883951 10.0618074343143249
 -13.3887654674500212  3.9391163646225178 12.3176937441930541
 -13.3832335718303561  1.7105676522854434 10.0633599806851350
 -11.1622064738852202  3.9543082566990333 14.5799072670503627
 -13.3887471183557807  3.9391327541047505 16.7966591960796023
 -13.3726908592380767  1.7120663991769414 14.5846049273581393
 -15.6139112244654044  3.9379036320106233  1.0004225686211043
 -17.8424030189810310  3.9390298744744352  3.2894525004198201
 -17.8447201711048535  1.7145383606492373  1.0021484481689598
 -15.6148363394787815  3.9626930801796161  5.5412710008028938
 -17.8424404297556940  3.9391791612799838  7.8039854786225220
 -17.8203073247341059  1.7124104001572673  5.5474593816348943
 -15.6150873479620955  3.9352460418373956 10.0618055022566182
 -17.8424329476007593  3.9391246484369069 12.3194121715183300
 -17.8478600039781057  1.7140302867000454 10.0632804903109516
 -15.6153212543769939  3.9239308858216595 14.5799042309596842
 -17.8424121935281512  3.9391247375101801 16.7995244376574533
 -17.8585130783556316  1.7125059757791963 14.5845969231190722
 -20.0707434780058342  3.9404301953992680  1.0000041401236572
 -20.0699073471921814  3.9155763472538978  5.5413132300641834
 -20.0697966291138421  3.9429971089805824 10.0617740373168374
 -20.0695353772041365  3.9543075441128495 14.5799011948690023
 -8.9350648520417266  8.3928217899875541  3.2882703571120544
 -8.9327250753065623  6.1640278589299111  1.0019759430166459
 -8.9350993233983793  8.3926827466084024  7.8053288107446122
 -8.9570746796534806  6.1657585526243022  5.5470853904646873
 -8.9351000359845614  8.3927812616483397 12.3176934681848103
 -8.9295624396754256  6.1642334400439953 10.0633655008500114
 -8.9350837355756028  8.3927968494711145 16.7966589200713585
 -8.9190262294320739  6.1657301382502148 14.5846052033663796
 -11.1602467728059480  8.3915689744028104  1.0004236726540796
 -13.3887305507270042  8.3927016301422785  3.2894530524363006
 -13.3910548287126687  6.1682028123086940  1.0021492761936912
 -11.1611672560091293  8.4163575318390720  5.5412723808441200
 -13.3887664472560246  8.3928554596847498  7.8039857546307729
 -13.3666362816524469  6.1660762769890933  5.5474651778080144
 -11.1614207585440859  8.3889183319448755 10.0618126784709574
 -13.3887614591527360  8.3927972057642073 12.3194174156749625
 -13.3941966211979242  6.1676977668507842 10.0632818703521707
 -11.1616576043769946  8.3775948921147521 14.5799036789431966
 -13.3887472965023306  8.3927896345360029 16.7995247136656936
 -13.4048480922565361  6.1661702492921080 14.5845996832015068
 -15.6170800952256528  8.3940953596449095  1.0000044161319011
 -17.8423700618700245  8.3927471465847798  3.2882386161640227
 -17.8400413302207106  6.1640127164735006  1.0019905714535682
 -15.6162411140672681  8.3692192431812877  5.5412936334788867
 -17.8424002577095706  8.3928177816902689  7.8052678129227502
 -17.8644065223904036  6.1657484873444517  5.5470691059783093
 -15.6161292380363790  8.3966623622994963 10.0617988780587666
 -17.8424285830103848  8.3927798364759720 12.3176846359210117
 -17.8368935698261630  6.1642410112721997 10.0633682609324495
 -15.6158713709110408  8.4079744007506765 14.5799036789431966
 -17.8424112137221478  8.3927979183503894 16.7966569880136554
 -17.8263544201648010  6.1657308508363986 14.5846052033663796
 -20.0675672141639261  8.3915580183902314  1.0004084922006768
 -22.2960591868261027  8.3928192959359116  3.2893961947381030
 -22.2983766952430145  6.1682034358216047  1.0021385118721895
 -20.0685328575165194  8.4162604419715024  5.5412963935613178
 -22.2960876902734633  8.3927736904201353  7.8039518056167907
 -22.2740671738689464  6.1661080761475535  5.5471193394786553
 -20.0687492164966379  8.3889143236475903 10.0618143345204203
 -22.2960900952518308  8.3927814397948861 12.3194124475265738
 -22.3016374896209975  6.1676556351926557 10.0633202354980398
 -20.0689838354977184  8.3775925762096524 14.5799042309596842
 -22.2960752200152399  8.3927891891696369 16.7995249896739409
 -22.3121758376229025  6.1661682006068279 14.5845941630366305
 -24.5244107800100259  8.3941001696016517  1.0000000000000000
 -24.5235692157267238  8.3692195104011073  5.5412905973881976
 -24.5234521734459996  8.3966583540022111 10.0618071583060811
 -24.5231975129584931  8.4079695017206610 14.5799056110008998
 -2.7987137366124553  1.7774480249115399 20.7040870112513744
 -5.7719616856245812  1.7738089363431249 18.6977650583560973
 -2.7981188162220882  1.7781934791332767 24.7950768525549421
 -5.7678350099597644  1.7789389333550139 22.6649163614704605
 -2.7992740965728982  1.7744807269680909 28.9551545878171837
 -5.7680160068505009  1.7759761781484877 26.9045227606458397
 -2.8009136683090090  1.7737249402466859 33.0809966851937176
 -5.7690918338417951  1.7741129434238738 31.0325886118944823
 -2.7990128446631890  1.7748713132701959 37.3167911353025161
 -5.7705255572440031  1.7758578888419438 35.1912752733622796
 -2.8001489742603041  1.7737665374651768 41.2790750831355950
 -5.7671393476976354  1.7758400741873439 39.2796741257299971
 -5.7452828151887143  4.7402263014152473 20.7132149246217061
 -8.7271396960362910  4.7497137629422959 18.7006959238695671
 -5.7436954403905807  4.7358128098113701 24.8056740569300480
 -8.7094052073819928  4.7537933188456956 22.6918949855369263
 -5.7380473041496503  4.7478492811918596 28.9403073478476927
 -8.7110491437084807  4.7455932333333157 26.8843343023854047
 -5.7436514381937185  4.7384591767522002 33.0987653204314825
 -8.7060736888252457  4.7476445908105056 31.0467950319389985
 -5.7400148436769483  4.7515665760939694 37.2920713400903736
 -8.7089513790560567  4.7370837963438062 35.1755848308204619
 -5.7596992353504914  4.7525992025478585 41.2838024892378641
 -8.7142841068372938  4.7432023285394500 39.2668380852404226
 -8.7367857079892808  1.7773764990733207 20.7036401559780217
 -11.7125375067054378  1.7728753593688118 18.6995044267238910
 -8.7370959501991390  1.7768466021722438 24.7961203332756881
 -11.7065455476307267  1.7789815103795079 22.6648346367619098
 -8.7380641766766498  1.7750467876180058 28.9530700816244462
 -11.7067944183554911  1.7770648316910937 26.9047346135383876
 -8.7387267927544965  1.7739352422442389 33.0816894160923667
 -11.7083848216449056  1.7742154667610968 31.0311828066075108
 -8.7368586589998660  1.7760007623718359 37.3150766701720897
 -11.7087738046280947  1.7738255930451758 35.1927501763642141
 -8.7367917649718443  1.7764747212574687 41.2800487646417480
 -11.7057184132176495  1.7763465448176219 39.2804591038318520
 -8.7621982237029084  7.7212854420298358 20.7127712260967485
 -11.7152623471997792  7.7068964564361435 18.7018362115412131
 -8.7596813693010187  7.7271562614532661 24.8054692190339416
 -11.7303509142796152  7.7074548567845804 22.6931341846584047
 -8.7649048041762843  7.7087277138557493 28.9393375245895896
 -11.7289514840875118  7.7160289609702870 26.8857116969367951
 -8.7569744325345500  7.7141120150620548 33.1030504310080786
 -11.7345405647484444  7.7083217178774159 31.0486683867388322
 -8.7614531257742634  7.7084573764721949 37.2920843178337904
 -11.7298113974650544  7.7253456690329951 35.1813245009093052
 -8.7436500506997525  7.7097468011721428 41.2854236549156042
 -11.7260355814225843  7.7150981452674365 39.2722989092206944
 -11.6832335578409872  4.7400061122843908 20.7134727257409494
 -14.6650788591630725  4.7549040625600059 18.7033426820271345
 -11.6822179443822396  4.7362253081386330 24.8058743350784674
 -14.6494451636524783  4.7565466627873993 22.6899830482566571
 -11.6759934149917264  4.7491493946845678 28.9371916371779818
 -14.6562696906099195  4.7491531357620334 26.8870698002479642
 -11.6796282280430397  4.7415159042617407 33.1020760480022815
 -14.6425402926027921  4.7496490957460979 31.0460219793310941
 -11.6804098460136139  4.7517656548591241 37.2931530525417330
 -14.6474550885871118  4.7367691895435708 35.1796622975023752
 -11.6982309138892706  4.7511025934149123 41.2837853024965753
 -14.6520374631165975  4.7415844016086774 39.2716791342850442
 -14.6762247759601099  1.7770651879841859 20.7048183246304518
 -17.6484581803927618  1.7721227792852348 18.6997141751175064
 -14.6741770704871115  1.7795101602547629 24.7958123749318844
 -17.6428341830088158  1.7792114975703939 22.6664340559506883
 -14.6746374902352485  1.7747941758157779 28.9542044065491169
 -17.6435015199701333  1.7779341868355738 26.9063101817392578
 -14.6784835850901150  1.7751534083257869 33.0807473020702076
 -17.6471826511234049  1.7752100589274149 31.0330765048970250
 -14.6776133392129058  1.7777848109567529 37.3181601118581696
 -17.6466731520018456  1.7748186709658529 35.1909869570085192
 -14.6741697664787250  1.7733968833822269 41.2797769335296181
 -17.6438962927160681  1.7767430990290178 39.2791939492235400
 -14.6996920204646901  7.7221678018721747 20.7139230885125265
 -17.6554254027335524  7.7076752240619824 18.7020592884280674
 -14.7009831375568254  7.7272359820326013 24.8042629903957419
 -17.6705515587345943  7.7073257896120024 22.6941738071311079
 -14.7050961850108735  7.7111614628939291 28.9395844524643451
 -17.6691185479185684  7.7150174448820987 26.8860975217411067
 -14.6911364435197669  7.7141915574948436 33.1042661298914780
 -17.6726262534093088  7.7086838007321612 31.0481861057334498
 -14.6987375112712222  7.7101382782069781 37.2946097165529125
 -17.6668990201019547  7.7245664560407921 35.1803325804124043
 -14.6853934442430898  7.7088381647142699 41.2836997195399817
 -17.6659730143558455  7.7175779451877569 39.2710277918654072
 -17.6240009755320628  4.7415834218026749 20.7151226529041068
 -20.6028230408952560  4.7518558860846722 18.7012017051130357
 -17.6201010804203015  4.7372793121780425 24.8055358615001396
 -20.5874948667110509  4.7556763278369161 22.6905256582314507
 -17.6157412109267746  4.7463410034601505 28.9414199262833947
 -20.5896983613385238  4.7461478035310138 26.8858919823453562
 -17.6184470788139684  4.7416856779200787 33.1019385540720208
 -20.5825582477748448  4.7491082428324418 31.0451405450281541
 -17.6193446701859884  4.7512787803489056 37.2918749201899971
 -20.5866990860900678  4.7334525462234165 35.1767479172305428
 -17.6353836490887339  4.7518845676785793 41.2845902733382957
 -20.5904029309279544  4.7418594598757018 39.2703438297123100
 -20.6391142535869214  7.7215136477552617 20.7136617798950624
 -23.5916791213886263  7.7072661995923664 18.7019782652191644
 -20.6385310908685931  7.7266064121390370 24.8057270201531850
 -23.6057993729176836  7.7060464301919041 22.6943351520492769
 -20.6434254890733904  7.7101027379710505 28.9405255142370379
 -23.6064861278525093  7.7156955597094479 26.8858379668727494
 -20.6318993184739163  7.7131001426807737 33.1028575186059228
 -23.6088840694349393  7.7096092720386311 31.0490359725523959
 -20.6372550271595863  7.7071640325482349 37.2936735652777287
 -23.6053130328471035  7.7243205247340372 35.1806107250213316
 -20.6215344852078211  7.7098096869028803 41.2852391605091853
 -23.6052693869433305  7.7141415873886903 39.2707044005294321
 -4.4813488269572019  3.9394071888588633  1.0471099150594512
 -4.4813926510075186  3.9391166318423374  5.5478383409534970
 -4.4814407505749383  3.9391191258939808 10.0624386651676616
 -4.4814275677305346  3.9391264299023674 14.5780221307458930
 -8.9350345671289055  3.9394157398930711  1.0473850952784147
 -8.9350654755546373  3.9391067447090342  5.5479793811660301
 -8.9350962949070940  3.9391215308723528 10.0621717651960125
 -8.9350965621269154  3.9391258954627291 14.5800207064385248
 -13.3886783537890253  3.9394119097423324  1.0471303396694793
 -13.3887044522580183  3.9391002423601056  5.5478836063054615
 -13.3887611028596467  3.9391209073594413 10.0624775823300254
 -13.3887550458770832  3.9391255391696371 14.5780295829684725
 -17.8423663207925571  3.9394071888588633  1.0474115920698139
 -17.8423806615895089  3.9390818041925946  5.5480152622377119
 -17.8424349962860411  3.9391245593636346 10.0621811494762881
 -17.8424251091527353  3.9391223325318090 14.5800198784137933
 -8.9350146147157545  8.3930756488156053  1.0471292356365041
 -8.9350400005985584  8.3927645158730151  5.5478830542889739
 -8.9350986108121937  8.3927832212603466 10.0624773063217816
 -8.9350907723641697  8.3927894563894565 14.5780293069602287
 -13.3887022254261900  8.3930709279321363  1.0474124200945454
 -13.3887120234862209  8.3927475919511458  5.5480163662706872
 -13.3887680505749387  8.3927952461522004 10.0621836335504895
 -13.3887565601227223  8.3927860716050819 14.5800226384962315
 -17.8423399551037498  8.3930706607123167  1.0471143311913451
 -17.8423851152531583  8.3927784113036044  5.5478427570853910
 -17.8424245747130961  8.3927893673161833 10.0624541216293153
 -17.8424227041743642  8.3927855371654445 14.5780304109932040
 -22.2960256062021820  8.3930789445267067  1.0473842672536833
 -22.2960601666321026  8.3927668317781130  5.5479774491083163
 -22.2960959740878479  8.3927841119930768 10.0621695571300620
 -22.2960881356398239  8.3927853590188981 14.5800201544220371
