Na  O Cl                                
   1.00000000000000     
     6.0888921901511779    1.6315137451511781    0.0000000000000000
    -4.4573784449999998    4.4573784449999989    0.0000000000000000
   -21.0071400663097805  -21.0071400663097805   21.0071400663097805
   Na   O    Cl
    12     4     4
Direct
  0.0000003488597642  0.5000001744298856  0.3468694028795269
  0.0000003488597642  0.5000001744298856  0.4693738769287066
  0.0000003488597642  0.5000001744298856  0.5918783509778933
  0.0000003488597642  0.5000001744298856  0.7143828250270730
  0.5000002744298797  0.5000001744298856  0.3468694028795269
  0.5000002744298797  0.0000001000000012  0.3468694028795269
  0.5000002744298797  0.5000001744298856  0.4693738769287066
  0.5000002744298797  0.0000001000000012  0.4693738769287066
  0.5000002744298797  0.5000001744298856  0.5918783509778933
  0.5000002744298797  0.0000001000000012  0.5918783509778933
  0.5000002744298797  0.5000001744298856  0.7143828250270730
  0.5000002744298797  0.0000001000000012  0.7143828250270730
  0.0000003488597642  0.5000001744298856  0.2856171749729270
  0.0000003488597642  0.5000001744298856  0.4081216490221067
  0.0000003488597642  0.5000001744298856  0.5306261230712934
  0.0000003488597642  0.5000001744298856  0.6531305971204731
  0.0000002000000023  0.0000001000000012  0.3468693846435400
  0.0000002000000023  0.0000001000000012  0.4693738586927196
  0.0000002000000023  0.0000001000000012  0.5918783327418993
  0.0000002000000023  0.0000001000000012  0.7143828067910860
 
  0.00000000E+00  0.00000000E+00  0.00000000E+00
  0.00000000E+00  0.00000000E+00  0.00000000E+00
  0.00000000E+00  0.00000000E+00  0.00000000E+00
  0.00000000E+00  0.00000000E+00  0.00000000E+00
  0.00000000E+00  0.00000000E+00  0.00000000E+00
  0.00000000E+00  0.00000000E+00  0.00000000E+00
  0.00000000E+00  0.00000000E+00  0.00000000E+00
  0.00000000E+00  0.00000000E+00  0.00000000E+00
  0.00000000E+00  0.00000000E+00  0.00000000E+00
  0.00000000E+00  0.00000000E+00  0.00000000E+00
  0.00000000E+00  0.00000000E+00  0.00000000E+00
  0.00000000E+00  0.00000000E+00  0.00000000E+00
  0.00000000E+00  0.00000000E+00  0.00000000E+00
  0.00000000E+00  0.00000000E+00  0.00000000E+00
  0.00000000E+00  0.00000000E+00  0.00000000E+00
  0.00000000E+00  0.00000000E+00  0.00000000E+00
  0.00000000E+00  0.00000000E+00  0.00000000E+00
  0.00000000E+00  0.00000000E+00  0.00000000E+00
  0.00000000E+00  0.00000000E+00  0.00000000E+00
  0.00000000E+00  0.00000000E+00  0.00000000E+00
