Na  O Cl 
 1.0000000000000000
     6.0888921901511779    1.6315137451511781    0.0000000000000000
    -4.4573784449999998    4.4573784449999989    0.0000000000000000
   -21.0071400663097805  -21.0071400663097805   21.0071400663097805
 Na  O   Cl 
  12   4   4
Cartesian
 -9.5154220068379196 -5.0580435618379225  7.2867341310074236
 -12.0888906519387049 -7.6315122069387069  9.8602027761082098
 -14.6623592970394903 -10.2049808520394940 12.4336714212089952
 -17.2358279421402756 -12.7784494971402758 15.0071400663097805
 -6.4709763649578624 -4.2422868106957088  7.2867341310074227
 -4.2422868106957070 -6.4709763649578633  7.2867341310074227
 -9.0444450100586486 -6.8157554557964941  9.8602027761082081
 -6.8157554557964923 -9.0444450100586486  9.8602027761082081
 -11.6179136551594340 -9.3892241008972803 12.4336714212089916
 -9.3892241008972768 -11.6179136551594322 12.4336714212089916
 -14.1913823002602193 -11.9626927459980621 15.0071400663097769
 -11.9626927459980621 -14.1913823002602193 15.0071400663097769
 -8.2286878758304951 -3.7713094308304962  6.0000000000000000
 -10.8021565209312822 -6.3447780759312842  8.5734686451007853
 -13.3756251660320657 -8.9182467210320659 11.1469372902015706
 -15.9490938111328511 -11.4917153661328513 13.7204059353023560
 -7.2867329758808905 -7.2867329758808905  7.2867337479214838
 -9.8602016209816767 -9.8602016209816767  9.8602023930222700
 -12.4336702660824621 -12.4336702660824621 12.4336710381230553
 -15.0071389111832474 -15.0071389111832474 15.0071396832238406
