Na  O Cl                                
   1.00000000000000     
    -3.1518425247742479   -3.1518425247742479    0.0000000000000000
     4.4573784449999989   -4.4573784449999989    0.0000000000000000
    11.8283157056318018  -11.8283157056318018   16.7277644909351793
   Na   O    Cl
     9     3     3
Direct
  0.5000001744298856  0.4999998255701144  0.3586851072210777
  0.0000001000000012  0.4999998255701144  0.4528950357403616
  0.5000001744298856  0.9999998999999988  0.3586851072210777
  0.5000001744298856  0.4999998255701144  0.4528950357403616
  0.0000001000000012  0.4999998255701144  0.5471049642596384
  0.5000001744298856  0.9999998999999988  0.4528950357403616
  0.5000001744298856  0.4999998255701144  0.5471049642596384
  0.0000001000000012  0.4999998255701144  0.6413148927789223
  0.5000001744298856  0.9999998999999988  0.5471049642596384
  0.5000001744298856  0.4999998255701144  0.4528950357403616
  0.5000001744298856  0.4999998255701144  0.5471049642596384
  0.5000001744298856  0.4999998255701144  0.6413148927789223
  0.0000001000000012  0.9999998999999988  0.4528950076922271
  0.0000001000000012  0.9999998999999988  0.5471049362115110
  0.0000001000000012  0.9999998999999988  0.6413148647307949
 
  0.00000000E+00  0.00000000E+00  0.00000000E+00
  0.00000000E+00  0.00000000E+00  0.00000000E+00
  0.00000000E+00  0.00000000E+00  0.00000000E+00
  0.00000000E+00  0.00000000E+00  0.00000000E+00
  0.00000000E+00  0.00000000E+00  0.00000000E+00
  0.00000000E+00  0.00000000E+00  0.00000000E+00
  0.00000000E+00  0.00000000E+00  0.00000000E+00
  0.00000000E+00  0.00000000E+00  0.00000000E+00
  0.00000000E+00  0.00000000E+00  0.00000000E+00
  0.00000000E+00  0.00000000E+00  0.00000000E+00
  0.00000000E+00  0.00000000E+00  0.00000000E+00
  0.00000000E+00  0.00000000E+00  0.00000000E+00
  0.00000000E+00  0.00000000E+00  0.00000000E+00
  0.00000000E+00  0.00000000E+00  0.00000000E+00
  0.00000000E+00  0.00000000E+00  0.00000000E+00
