Na  O Cl 
 1.0000000000000000
    -3.1518425247742479   -3.1518425247742479    0.0000000000000000
     4.4573784449999989   -4.4573784449999989    0.0000000000000000
    11.8283157056318018  -11.8283157056318018   16.7277644909351793
 Na  O   Cl 
   9   3   3
Cartesian
  4.8954073199566377 -8.0472509442819309  6.0000000000000009
  7.5856735940661091 -7.5856742244346140  7.5759214969783946
  7.1240968742187931 -10.2759404985440845  6.0000000000000009
  6.0097520970877145 -9.1615957214130077  7.5759214969783946
  8.7000183711971850 -8.7000190015656909  9.1518429939567874
  8.2384416513498699 -11.3902852756751614  7.5759214969783946
  7.1240968742187922 -10.2759404985440845  9.1518429939567874
  9.8143631483282618 -9.8143637786967695 10.7277644909351810
  9.3527864284809468 -12.5046300528062382  9.1518429939567874
  6.0097520970877154 -9.1615957214130077  7.5759214969783946
  7.1240968742187922 -10.2759404985440845  9.1518429939567874
  8.2384416513498699 -11.3902852756751614 10.7277644909351810
  9.8143628165661099 -9.8143634469346139  7.5759210277958555
 10.9287075936971867 -10.9287082240656908  9.1518425247742492
 12.0430523708282635 -12.0430530011967676 10.7277640217526411
