Na                                      
   1.00000000000000     
     5.7310940451428385    1.5356420211428399    0.0000000000000000
     1.5356420211428405    5.7310940451428394    0.0000000000000000
   -25.3223432741120611  -25.3223432741120611   25.3223432741120611
   Na
    12
Direct
  0.5000009505531153  0.5000009505531153  0.2369448962542933
  0.0000001000000012  0.0000001000000012  0.2847728750419947
  0.5000009505531153  0.5000009505531153  0.3326013419950300
  0.0000001000000012  0.0000001000000012  0.3804293207827385
  0.5000009505531153  0.5000009505531153  0.4282577877357738
  0.0000001000000012  0.0000001000000012  0.4760857665234823
  0.5000009505531153  0.5000009505531153  0.5239142334765177
  0.0000001000000012  0.0000001000000012  0.5717422122642262
  0.5000009505531153  0.5000009505531153  0.6195706792172615
  0.0000001000000012  0.0000001000000012  0.6673986580049700
  0.5000009505531153  0.5000009505531153  0.7152271249580053
  0.0000001000000012  0.0000001000000012  0.7630551037457067
 
  0.00000000E+00  0.00000000E+00  0.00000000E+00
  0.00000000E+00  0.00000000E+00  0.00000000E+00
  0.00000000E+00  0.00000000E+00  0.00000000E+00
  0.00000000E+00  0.00000000E+00  0.00000000E+00
  0.00000000E+00  0.00000000E+00  0.00000000E+00
  0.00000000E+00  0.00000000E+00  0.00000000E+00
  0.00000000E+00  0.00000000E+00  0.00000000E+00
  0.00000000E+00  0.00000000E+00  0.00000000E+00
  0.00000000E+00  0.00000000E+00  0.00000000E+00
  0.00000000E+00  0.00000000E+00  0.00000000E+00
  0.00000000E+00  0.00000000E+00  0.00000000E+00
  0.00000000E+00  0.00000000E+00  0.00000000E+00
