Na 
 1.0000000000000000
     5.7310940451428385    1.5356420211428399    0.0000000000000000
     1.5356420211428405    5.7310940451428394    0.0000000000000000
   -25.3223432741120611  -25.3223432741120611   25.3223432741120611
 Na 
  12
Cartesian
 -2.3666250594385394 -2.3666250594385394  5.9999999999999991
 -7.2111157702956588 -7.2111157702956596  7.2111164969692663
 -4.7888704148670991 -4.7888704148670991  8.4222453554285597
 -9.6333611257242193 -9.6333611257242193  9.6333618523978259
 -7.2111157702956605 -7.2111157702956588 10.8444907108571194
 -12.0556064811527790 -12.0556064811527772 12.0556072078263856
 -9.6333611257242175 -9.6333611257242175 13.2667360662856790
 -14.4778518365813387 -14.4778518365813387 14.4778525632549453
 -12.0556064811527790 -12.0556064811527790 15.6889814217142387
 -16.9000971920098984 -16.9000971920098948 16.9000979186835067
 -14.4778518365813387 -14.4778518365813387 18.1112267771427966
 -19.3223425474384598 -19.3223425474384527 19.3223432741120646
