Na  O Cl                                
   1.00000000000000     
   -17.6055192000000034  -26.5202760800000021    0.0000000000000000
    -6.8444557200000009  -24.6739694800000038    0.0000000000000000
     0.0000000000000000    0.0000000000000000   23.0314491648398345
   Na   O    Cl
   108    36    36
Direct
  0.5305406475765270  0.9573088492240378  0.2613252664097789
  0.2583278314330325  0.3385317268520527  0.4026750440766038
  0.9821593345438711  0.7250195542038927  0.5417386386253610
  0.7110529367782263  0.1045616031176391  0.6844625173971552
  0.7533340253691094  0.8455674279491470  0.2614948870146010
  0.4996138324223744  0.1006305781542176  0.3307543267514632
  0.4802231715558759  0.2275538809854103  0.4026425983897334
  0.2208765121003561  0.4907709960063627  0.4691867390699925
  0.2043608899777880  0.6140750407054935  0.5417512543259841
  0.9442270330189791  0.8780894007180609  0.6085295383446533
  0.9329052802986968 -0.0062045602590050  0.6842566762313986
  0.6653550739327594  0.2685978696215413  0.7628074206209809
  0.7208678652232063  0.9907536816673490  0.3307155409560343
  0.4439633943602621  0.3785216685810520  0.4692830272653376
  0.1656230257166247  0.7681722505091134  0.6083978857830543
  0.8880962171711413  0.1566449765525789  0.7625294457116013
  0.6894356491913186  0.1348651691098676  0.2612621691327312
  0.4062088033373069  0.5311297432731119  0.4026695167187262
  0.1269663461882539  0.9222137731061929  0.5419037456964312
  0.8426618101011915  0.3203629908495254  0.6842883277331960
  0.6419734140673941  0.4013450270208460  0.2613199792412850
  0.3883003286638823  0.6564249267211553  0.3305347298100612
  0.9111463221660168  0.0241763756283560  0.2613680847949279
  0.3690169979954877  0.7831964356962753  0.4026381558201268
  0.1101551358335781  0.0456059420625648  0.4693467337670089
  0.6284209246570852  0.4203012023612777  0.4026423920937645
  0.0929098028744940  0.1700087675815420  0.5417240566241860
  0.8324367252348465  0.4345710677853216  0.6083785587632807
  0.3493000651523209  0.8109646201056651  0.5417601196721635
  0.8220065073697059  0.5490695076909823  0.6843686062021457
  0.5547006311175443  0.8233426315557896  0.7632212685188772
  0.0648790308784587  0.2090179313745508  0.6843839328974085
  0.8641991856248418  0.2899220336280909  0.2612623387506801
  0.6101352410473473  0.5458113202809098  0.3307321772208581
  0.1335262097525227  0.9128255167281479  0.2611796008199813
  0.5912515886741816  0.6723408236700585  0.4025944233494663
  0.3322530199020429  0.9347396272584774  0.4692970468525103
  0.8508141558837726  0.3087551321749183  0.4026840056543715
  0.3150786929392477  0.0588097780359419  0.5417830269354471
  0.0549991674000887  0.3231390246781627  0.6086621380055540
  0.5713894773130567  0.6998692351768437  0.5418217587049756
  0.0441566064976088  0.4382605942978048  0.6843316043869627
  0.7763869314230938  0.7130673052168413  0.7624003926130669
  0.2870600695296584  0.0983039098747233  0.6843480257873307
  0.5780599201719013  0.6904838990426773  0.2612641440068952
  0.2954210440173147  0.0865261526302948  0.4027322007447443
  0.0159472414998980  0.4776449291856340  0.5417009479717935
  0.7318263056107489  0.8756528157219098  0.6843395441737453
  0.0862772195340504  0.1792356557501879  0.2613219891037860
  0.8323608413342009  0.4345630185374951  0.3304654531634222
  0.3555449979600716  0.8020571439347549  0.2613858293148121
  0.8138089929391600  0.5606715872553026  0.4027300853952046
  0.5548500558342084  0.8232316520272565  0.4694012655174158
  0.0727023660889831  0.1981115445237455  0.4026274019857382
  0.5377569653363140  0.9472040509755625  0.5416991048388706
  0.2765320342178751  0.2129362123611434  0.6083763831718131
  0.7938043227416240  0.5887591826869178  0.5416680977860385
  0.2664854051634059  0.3268958138132889  0.6843454699201014
  0.9993880880914651  0.6008425880543872  0.7631055278141834
  0.5091896340253350  0.9869631890921169  0.6842774468729355
  0.8001156173089687  0.5800420236758652  0.2614383010533772
  0.5172401615233828  0.9756532776401847  0.4026807175642206
  0.2383613886953206  0.3665177902009736  0.5416508995213032
  0.9535694313557403  0.7647087116130555  0.6843394803581568
  0.3087057859918961  0.0677186668393677  0.2614196724596441
  0.0545260348942651  0.3236129845195828  0.3307174388735334
  0.0356286717378677  0.4500696715124897  0.4026220783784218
  0.7764254870600433  0.7130336176645267  0.4692525385658322
  0.7598945692902256  0.8361759281644611  0.5416680069293578
  0.4994445771894077  0.1007286779680191  0.6085758313508731
  0.4885906865944175  0.2158353891211909  0.6842615780554393
  0.2205114959857844  0.4911436487568230  0.7625257761634106
  0.0225666449186996  0.4683497685726512  0.2613645569223782
  0.7397867947938062  0.8644339925381462  0.4027868922246108
  0.4605133654647248  0.2552761253245537  0.5418237653757223
  0.1764245569685010  0.6531733040946859  0.6843989845468921
  0.2762928856250549  0.2132853893594439  0.3304645231726657
  0.9992160794505460  0.6012355237967142  0.4692828805999253
  0.7209989507211585  0.9905546520046643  0.6084230852963554
  0.4440432632905161  0.3783711461499535  0.7628392302000089
  0.9753659377164027  0.7346621338133457  0.2613205965805870
  0.2449271964197410  0.3573548567626900  0.2612685980054063
  0.7026305133663250  0.1164266984701780  0.4026680970126916
  0.9617068637871096  0.7535019086396210  0.4026642854147353
  0.4263852939814647  0.5029630128591379  0.5417673438699310
  0.6829771129882266  0.1440839781665058  0.5418128349270358
  0.1554517920903062  0.8824821563968939  0.6844105149098634
  0.3981753965789331  0.5425851461341828  0.6843184542792733
  0.1974499259767145  0.6236714658407673  0.2613161800491146
  0.9439796754138444  0.8784982781954322  0.3306095176833391
  0.4671269539270549  0.2459271098931274  0.2614017937565515
  0.9244588009460065  0.0055457970879506  0.4026354725197545
  0.6653349907132831  0.2684347436672461  0.4692439994036610
  0.1842770564327804  0.6422294725926999  0.4027791854458478
  0.6487475022191419  0.3917882353906572  0.5416862754112969
  0.3882881317409340  0.6564597678957240  0.6083996018142961
  0.9048615218703373  0.0330626544744233  0.5417417302713758
  0.3775409539444511  0.7712694284044491  0.6842785593542291
  0.1103120458248114  0.0456829671252977  0.7631071191742448
  0.6205458728913841  0.4312019489201583  0.6843449123684829
  0.4196676257050314  0.5123669999790930  0.2612005054944225
  0.1655064659925204  0.7682752546204353  0.3306257958872491
  0.1469499694363422  0.8943034693295582  0.4027289229373635
  0.8882603767547543  0.1563392290272798  0.4693382314940482
  0.8704747864179028  0.2811933075138316  0.5416490899701775
  0.6101840835108937  0.5457386947521413  0.6086171034806863
  0.5997221123278038  0.6605213751520729  0.6844450132227559
  0.3324991105900609  0.9344397335401311  0.7624562704830303
  0.3878046876224524  0.1573074910642051  0.3255134553895280
  0.1102514898156150  0.5456677661757261  0.4613378320489960
  0.8322992901560515  0.9349151545815557  0.6006973597737617
  0.5547262482142336  0.3234301276658697  0.7385689199146791
  0.6098233324114961  0.0461763800038886  0.3255241542403011
  0.3322771857003011  0.4349904273322039  0.4613873583540785
  0.0546939883055104  0.8234822473010538  0.6006729163611912
  0.7768129593933026  0.2123659460399550  0.7384223658505475
  0.4990239978794574  0.6015138057489785  0.3254140937911165
  0.2211516721081661  0.9902028277873320  0.4614302235165185
  0.9436271583822513  0.3790609007547582  0.6007317623150247
  0.6653321585237391  0.7679281417039923  0.7384990155473924
  0.7211308370067459  0.4901677582154915  0.3255080293366751
  0.4432680290499436  0.8795605837870037  0.4614109973566108
  0.1657578785183938  0.2677715895832846  0.6006812282267995
  0.8881142575980573  0.6570403580211581  0.7385517845019182
  0.9433970858696991  0.3794414840326913  0.3254632414292317
  0.6656189682493194  0.7680322624256996  0.4614542391322972
  0.3881264544938841  0.1568986141373653  0.6006809634653203
  0.1099993938486971  0.5456388950585357  0.7385407750127247
  0.1654033926722562  0.2682890483213630  0.3254983679953507
  0.8880100865071241  0.6570568445069201  0.4614243194413857
  0.6096497662679750  0.0464180913646180  0.6006618685585297
  0.3323347429049371  0.4348585527005435  0.7384113698894458
  0.8324194829961351  0.9347629946941994  0.3255931611474144
  0.5547302893206878  0.3234393480247800  0.4614138279063459
  0.2770951015965165  0.7119528008349980  0.6006801439773104
  0.9992073534987220  0.1015850435643061  0.7383817539160141
  0.0543186783423335  0.8239328451939290  0.3254640147973754
  0.7768260605505710  0.2123326242682627  0.4613810062560366
  0.4986981504301122  0.6018100351248489  0.6006663754031107
  0.2208824009980111  0.9903158258183876  0.7383898719279586
  0.2769063723028375  0.7121717630003104  0.3256234252183717
  0.9990254201508517  0.1013800309369313  0.4614462239829896
  0.7211856367322352  0.4900303256416205  0.6005257730129675
  0.4437187875309557  0.8792625324043508  0.7385281957238700
  0.8879073994425444  0.1568493641672138  0.5876450512366062
  0.6098549965519828  0.5462114435824243  0.7247345332460594
  0.4436092985911421  0.3789897985703337  0.2977779850081281
  0.1655747705077326  0.7681428027511126  0.4493384778577420
  0.1097869377087132  0.0462307770182072  0.5877256776196331
  0.8324311430498192  0.4346146292039839  0.7246368587737412
  0.6655386098619526  0.2682369123551135  0.2977274230738776
  0.3880659106002879  0.6567076634685438  0.4491901151105227
  0.3323381707668465  0.9347414904892041  0.5876666968361961
  0.0545888023721202  0.3235505955118444  0.7247728018734169
  0.8879855786662648  0.1567146653976496  0.2979019900103129
  0.6100524670930589  0.5459224984298521  0.4493655342367450
  0.7767446686692330  0.7126199484971704  0.5876255788788241
  0.4995207607997657  0.1006007743681459  0.7246899611145786
  0.5544711537139184  0.8237449547929271  0.5877491260761041
  0.2765984314437985  0.2128081008507074  0.7247107336465729
  0.1100580496719816  0.0458667130486696  0.2976805045895165
  0.8323109506241929  0.4347222032428809  0.4491476649708526
  0.9991736457946632  0.6012457561098618  0.5876810039295355
  0.7207447736786032  0.9908849453177544  0.7247198698025937
  0.5545272785459932  0.8236283561648828  0.2976311099272713
  0.2766522400829502  0.2127621872701739  0.4491257366152755
  0.3322864666381241  0.9347551195930349  0.2978017247124296
  0.0544936775217448  0.3236693307951028  0.4493236295598722
  0.2210327440170592  0.4906356770303716  0.5876226220385468
  0.9440964500588570  0.8782861465941868  0.7247141946882385
  0.7766884401294071  0.7126905519130823  0.2978270532081836
  0.4992007674657031  0.1011450449667001  0.4493785143434587
  0.4435709269184668  0.3789827091601587  0.5876841034378685
  0.1653474843667192  0.7685770388003963  0.7246722017330559
  0.9992463966365913  0.6011361077388824  0.2976495141235132
  0.7209904448933314  0.9906270243824157  0.4492724124028505
  0.6654416824905648  0.2683132274481954  0.5877098833643341
  0.3882887028660685  0.6563916826539365  0.7246729723714691
  0.2211616734016338  0.4904793298822565  0.2978517227507643
  0.9436450789706857  0.8789548751352219  0.4493688788840682
 
  0.00000000E+00  0.00000000E+00  0.00000000E+00
  0.00000000E+00  0.00000000E+00  0.00000000E+00
  0.00000000E+00  0.00000000E+00  0.00000000E+00
  0.00000000E+00  0.00000000E+00  0.00000000E+00
  0.00000000E+00  0.00000000E+00  0.00000000E+00
  0.00000000E+00  0.00000000E+00  0.00000000E+00
  0.00000000E+00  0.00000000E+00  0.00000000E+00
  0.00000000E+00  0.00000000E+00  0.00000000E+00
  0.00000000E+00  0.00000000E+00  0.00000000E+00
  0.00000000E+00  0.00000000E+00  0.00000000E+00
  0.00000000E+00  0.00000000E+00  0.00000000E+00
  0.00000000E+00  0.00000000E+00  0.00000000E+00
  0.00000000E+00  0.00000000E+00  0.00000000E+00
  0.00000000E+00  0.00000000E+00  0.00000000E+00
  0.00000000E+00  0.00000000E+00  0.00000000E+00
  0.00000000E+00  0.00000000E+00  0.00000000E+00
  0.00000000E+00  0.00000000E+00  0.00000000E+00
  0.00000000E+00  0.00000000E+00  0.00000000E+00
  0.00000000E+00  0.00000000E+00  0.00000000E+00
  0.00000000E+00  0.00000000E+00  0.00000000E+00
  0.00000000E+00  0.00000000E+00  0.00000000E+00
  0.00000000E+00  0.00000000E+00  0.00000000E+00
  0.00000000E+00  0.00000000E+00  0.00000000E+00
  0.00000000E+00  0.00000000E+00  0.00000000E+00
  0.00000000E+00  0.00000000E+00  0.00000000E+00
  0.00000000E+00  0.00000000E+00  0.00000000E+00
  0.00000000E+00  0.00000000E+00  0.00000000E+00
  0.00000000E+00  0.00000000E+00  0.00000000E+00
  0.00000000E+00  0.00000000E+00  0.00000000E+00
  0.00000000E+00  0.00000000E+00  0.00000000E+00
  0.00000000E+00  0.00000000E+00  0.00000000E+00
  0.00000000E+00  0.00000000E+00  0.00000000E+00
  0.00000000E+00  0.00000000E+00  0.00000000E+00
  0.00000000E+00  0.00000000E+00  0.00000000E+00
  0.00000000E+00  0.00000000E+00  0.00000000E+00
  0.00000000E+00  0.00000000E+00  0.00000000E+00
  0.00000000E+00  0.00000000E+00  0.00000000E+00
  0.00000000E+00  0.00000000E+00  0.00000000E+00
  0.00000000E+00  0.00000000E+00  0.00000000E+00
  0.00000000E+00  0.00000000E+00  0.00000000E+00
  0.00000000E+00  0.00000000E+00  0.00000000E+00
  0.00000000E+00  0.00000000E+00  0.00000000E+00
  0.00000000E+00  0.00000000E+00  0.00000000E+00
  0.00000000E+00  0.00000000E+00  0.00000000E+00
  0.00000000E+00  0.00000000E+00  0.00000000E+00
  0.00000000E+00  0.00000000E+00  0.00000000E+00
  0.00000000E+00  0.00000000E+00  0.00000000E+00
  0.00000000E+00  0.00000000E+00  0.00000000E+00
  0.00000000E+00  0.00000000E+00  0.00000000E+00
  0.00000000E+00  0.00000000E+00  0.00000000E+00
  0.00000000E+00  0.00000000E+00  0.00000000E+00
  0.00000000E+00  0.00000000E+00  0.00000000E+00
  0.00000000E+00  0.00000000E+00  0.00000000E+00
  0.00000000E+00  0.00000000E+00  0.00000000E+00
  0.00000000E+00  0.00000000E+00  0.00000000E+00
  0.00000000E+00  0.00000000E+00  0.00000000E+00
  0.00000000E+00  0.00000000E+00  0.00000000E+00
  0.00000000E+00  0.00000000E+00  0.00000000E+00
  0.00000000E+00  0.00000000E+00  0.00000000E+00
  0.00000000E+00  0.00000000E+00  0.00000000E+00
  0.00000000E+00  0.00000000E+00  0.00000000E+00
  0.00000000E+00  0.00000000E+00  0.00000000E+00
  0.00000000E+00  0.00000000E+00  0.00000000E+00
  0.00000000E+00  0.00000000E+00  0.00000000E+00
  0.00000000E+00  0.00000000E+00  0.00000000E+00
  0.00000000E+00  0.00000000E+00  0.00000000E+00
  0.00000000E+00  0.00000000E+00  0.00000000E+00
  0.00000000E+00  0.00000000E+00  0.00000000E+00
  0.00000000E+00  0.00000000E+00  0.00000000E+00
  0.00000000E+00  0.00000000E+00  0.00000000E+00
  0.00000000E+00  0.00000000E+00  0.00000000E+00
  0.00000000E+00  0.00000000E+00  0.00000000E+00
  0.00000000E+00  0.00000000E+00  0.00000000E+00
  0.00000000E+00  0.00000000E+00  0.00000000E+00
  0.00000000E+00  0.00000000E+00  0.00000000E+00
  0.00000000E+00  0.00000000E+00  0.00000000E+00
  0.00000000E+00  0.00000000E+00  0.00000000E+00
  0.00000000E+00  0.00000000E+00  0.00000000E+00
  0.00000000E+00  0.00000000E+00  0.00000000E+00
  0.00000000E+00  0.00000000E+00  0.00000000E+00
  0.00000000E+00  0.00000000E+00  0.00000000E+00
  0.00000000E+00  0.00000000E+00  0.00000000E+00
  0.00000000E+00  0.00000000E+00  0.00000000E+00
  0.00000000E+00  0.00000000E+00  0.00000000E+00
  0.00000000E+00  0.00000000E+00  0.00000000E+00
  0.00000000E+00  0.00000000E+00  0.00000000E+00
  0.00000000E+00  0.00000000E+00  0.00000000E+00
  0.00000000E+00  0.00000000E+00  0.00000000E+00
  0.00000000E+00  0.00000000E+00  0.00000000E+00
  0.00000000E+00  0.00000000E+00  0.00000000E+00
  0.00000000E+00  0.00000000E+00  0.00000000E+00
  0.00000000E+00  0.00000000E+00  0.00000000E+00
  0.00000000E+00  0.00000000E+00  0.00000000E+00
  0.00000000E+00  0.00000000E+00  0.00000000E+00
  0.00000000E+00  0.00000000E+00  0.00000000E+00
  0.00000000E+00  0.00000000E+00  0.00000000E+00
  0.00000000E+00  0.00000000E+00  0.00000000E+00
  0.00000000E+00  0.00000000E+00  0.00000000E+00
  0.00000000E+00  0.00000000E+00  0.00000000E+00
  0.00000000E+00  0.00000000E+00  0.00000000E+00
  0.00000000E+00  0.00000000E+00  0.00000000E+00
  0.00000000E+00  0.00000000E+00  0.00000000E+00
  0.00000000E+00  0.00000000E+00  0.00000000E+00
  0.00000000E+00  0.00000000E+00  0.00000000E+00
  0.00000000E+00  0.00000000E+00  0.00000000E+00
  0.00000000E+00  0.00000000E+00  0.00000000E+00
  0.00000000E+00  0.00000000E+00  0.00000000E+00
  0.00000000E+00  0.00000000E+00  0.00000000E+00
  0.00000000E+00  0.00000000E+00  0.00000000E+00
  0.00000000E+00  0.00000000E+00  0.00000000E+00
  0.00000000E+00  0.00000000E+00  0.00000000E+00
  0.00000000E+00  0.00000000E+00  0.00000000E+00
  0.00000000E+00  0.00000000E+00  0.00000000E+00
  0.00000000E+00  0.00000000E+00  0.00000000E+00
  0.00000000E+00  0.00000000E+00  0.00000000E+00
  0.00000000E+00  0.00000000E+00  0.00000000E+00
  0.00000000E+00  0.00000000E+00  0.00000000E+00
  0.00000000E+00  0.00000000E+00  0.00000000E+00
  0.00000000E+00  0.00000000E+00  0.00000000E+00
  0.00000000E+00  0.00000000E+00  0.00000000E+00
  0.00000000E+00  0.00000000E+00  0.00000000E+00
  0.00000000E+00  0.00000000E+00  0.00000000E+00
  0.00000000E+00  0.00000000E+00  0.00000000E+00
  0.00000000E+00  0.00000000E+00  0.00000000E+00
  0.00000000E+00  0.00000000E+00  0.00000000E+00
  0.00000000E+00  0.00000000E+00  0.00000000E+00
  0.00000000E+00  0.00000000E+00  0.00000000E+00
  0.00000000E+00  0.00000000E+00  0.00000000E+00
  0.00000000E+00  0.00000000E+00  0.00000000E+00
  0.00000000E+00  0.00000000E+00  0.00000000E+00
  0.00000000E+00  0.00000000E+00  0.00000000E+00
  0.00000000E+00  0.00000000E+00  0.00000000E+00
  0.00000000E+00  0.00000000E+00  0.00000000E+00
  0.00000000E+00  0.00000000E+00  0.00000000E+00
  0.00000000E+00  0.00000000E+00  0.00000000E+00
  0.00000000E+00  0.00000000E+00  0.00000000E+00
  0.00000000E+00  0.00000000E+00  0.00000000E+00
  0.00000000E+00  0.00000000E+00  0.00000000E+00
  0.00000000E+00  0.00000000E+00  0.00000000E+00
  0.00000000E+00  0.00000000E+00  0.00000000E+00
  0.00000000E+00  0.00000000E+00  0.00000000E+00
  0.00000000E+00  0.00000000E+00  0.00000000E+00
  0.00000000E+00  0.00000000E+00  0.00000000E+00
  0.00000000E+00  0.00000000E+00  0.00000000E+00
  0.00000000E+00  0.00000000E+00  0.00000000E+00
  0.00000000E+00  0.00000000E+00  0.00000000E+00
  0.00000000E+00  0.00000000E+00  0.00000000E+00
  0.00000000E+00  0.00000000E+00  0.00000000E+00
  0.00000000E+00  0.00000000E+00  0.00000000E+00
  0.00000000E+00  0.00000000E+00  0.00000000E+00
  0.00000000E+00  0.00000000E+00  0.00000000E+00
  0.00000000E+00  0.00000000E+00  0.00000000E+00
  0.00000000E+00  0.00000000E+00  0.00000000E+00
  0.00000000E+00  0.00000000E+00  0.00000000E+00
  0.00000000E+00  0.00000000E+00  0.00000000E+00
  0.00000000E+00  0.00000000E+00  0.00000000E+00
  0.00000000E+00  0.00000000E+00  0.00000000E+00
  0.00000000E+00  0.00000000E+00  0.00000000E+00
  0.00000000E+00  0.00000000E+00  0.00000000E+00
  0.00000000E+00  0.00000000E+00  0.00000000E+00
  0.00000000E+00  0.00000000E+00  0.00000000E+00
  0.00000000E+00  0.00000000E+00  0.00000000E+00
  0.00000000E+00  0.00000000E+00  0.00000000E+00
  0.00000000E+00  0.00000000E+00  0.00000000E+00
  0.00000000E+00  0.00000000E+00  0.00000000E+00
  0.00000000E+00  0.00000000E+00  0.00000000E+00
  0.00000000E+00  0.00000000E+00  0.00000000E+00
  0.00000000E+00  0.00000000E+00  0.00000000E+00
  0.00000000E+00  0.00000000E+00  0.00000000E+00
  0.00000000E+00  0.00000000E+00  0.00000000E+00
  0.00000000E+00  0.00000000E+00  0.00000000E+00
  0.00000000E+00  0.00000000E+00  0.00000000E+00
  0.00000000E+00  0.00000000E+00  0.00000000E+00
  0.00000000E+00  0.00000000E+00  0.00000000E+00
  0.00000000E+00  0.00000000E+00  0.00000000E+00
  0.00000000E+00  0.00000000E+00  0.00000000E+00
  0.00000000E+00  0.00000000E+00  0.00000000E+00
  0.00000000E+00  0.00000000E+00  0.00000000E+00
  0.00000000E+00  0.00000000E+00  0.00000000E+00
  0.00000000E+00  0.00000000E+00  0.00000000E+00
