Na  O Cl 
 1.0000000000000000
   -17.6055192000000034  -26.5202760800000021    0.0000000000000000
    -6.8444557200000009  -24.6739694800000038    0.0000000000000000
     0.0000000000000000    0.0000000000000000   23.0314491648398345
 Na  O   Cl 
 108  36  36
Cartesian
 -15.8619543659141247 -37.7193695457123397  6.0000000000000009
 -6.7888094266370951 -15.2740892849893655  9.1518425198194571
 -22.1656394073600644 -44.0230545842663901 12.3036850396389106
 -13.0924944680830393 -21.5777743235434158 15.4555275594583712
 -19.0137968859141218 -40.8712120657123350  6.0000000000000009
 -9.4790748313612241 -15.7356659590072798  7.5759216053814651
 -9.9406519466370948 -18.4259318049893643  9.1518425198194571
 -7.2503856120841954 -17.9643551782843076 10.7277641252009239
 -7.7119627273600688 -20.6546210242663939 12.3036850396389106
 -22.6272155928071719 -46.7133204775613464 13.8796066450203774
 -16.2443369880830417 -24.7296168435434147 15.4555275594583712
 -13.5540706535301378 -24.2680402168383651 17.0314491648398345
 -19.4753730713612292 -43.5614779590072843  7.5759216053814651
 -10.4022281320841934 -21.1161976982843065 10.7277641252009239
 -8.1735389128071656 -23.3448869175613360 13.8796066450203774
 -16.7059131735301385 -27.4198827368383640 17.0314491648398345
 -13.0924932624219448 -21.5777755292045121  6.0000000000000009
 -10.8638040431449152 -23.8064647484815382  9.1518425198194571
 -8.6351148238678856 -26.0351539677585713 12.3036850396389106
 -17.1674890845908550 -30.1101497870356027 15.4555275594583712
 -14.0156477659141210 -26.9583060657123355  6.0000000000000009
 -11.3253814313612242 -26.4967294390072787  7.5759216053814651
 -16.2443357824219454 -24.7296180492045146  6.0000000000000009
 -11.7869585466370932 -29.1869952849893686  9.1518425198194571
 -2.2522364920841924 -4.0514491782843027 10.7277641252009239
 -14.0156465631449141 -26.9583072684815406  9.1518425198194571
 -2.7138136073600658 -6.7417150242663890 12.3036850396389106
 -17.6290664728071640 -32.8004144775613327 13.8796066450203774
 -11.7869573438678845 -29.1869964877585737 12.3036850396389106
 -18.0906435880830330 -35.4906803235434154 15.4555275594583712
 -15.4003772535301380 -35.0291036968383622 17.0314491648398345
 -2.7138124045908603 -6.7417162270356004 15.4555275594583712
 -17.1674902859141234 -30.1101485857123343  6.0000000000000009
 -14.4772239513612302 -29.6485719590072776  7.5759216053814651
 -8.6351148224219472 -26.0351539692045151  6.0000000000000009
 -14.9388010666370921 -32.3388378049893603  9.1518425198194571
 -12.2485347320841989 -31.8772611782843107 10.7277641252009239
 -17.1674890831449218 -30.1101497884815430  9.1518425198194571
 -5.8656561273600643 -9.8935575442663843 12.3036850396389106
 -3.1753897928071657 -9.4319809175613347 13.8796066450203774
 -14.9387998638678852 -32.3388390077585655 12.3036850396389106
 -3.6369669080830325 -12.1222467635434157 15.4555275594583712
 -18.5522197735301475 -38.1809462168383646 17.0314491648398345
 -5.8656549245908609 -9.8935587470355930 15.4555275594583712
 -14.9387998624219502 -32.3388390092045199  6.0000000000000009
 -5.8656549231449127 -9.8935587484815404  9.1518425198194571
 -3.6369657038678818 -12.1222479677585664 12.3036850396389106
 -19.0137956845908569 -40.8712132670355999 15.4555275594583712
 -2.7138136059141194 -6.7417150257123293  6.0000000000000009
 -17.6290664713612273 -32.8004144790072800  7.5759216053814651
 -11.7869573424219460 -29.1869964892045139  6.0000000000000009
 -18.0906435866370963 -35.4906803249893628  9.1518425198194571
 -15.4003772520841977 -35.0291036982843096 10.7277641252009239
 -2.7138124031449142 -6.7417162284815371  9.1518425198194571
 -15.8619543673600631 -37.7193695442663852 12.3036850396389106
 -6.3272323128071637 -12.5838234375613336 13.8796066450203774
 -18.0906423838678876 -35.4906815277585679 12.3036850396389106
 -6.7888094280830336 -15.2740892835434092 15.4555275594583712
 -21.7040622935301428 -41.3327887368383671 17.0314491648398345
 -15.8619531645908616 -37.7193707470355974 15.4555275594583712
 -18.0906423824219402 -35.4906815292045081  6.0000000000000009
 -15.8619531631449160 -37.7193707484815377  9.1518425198194571
 -6.7888082238678846 -15.2740904877585635 12.3036850396389106
 -22.1656382045908629 -44.0230557870355952 15.4555275594583712
 -5.8656561259141222 -9.8935575457123317  6.0000000000000009
 -3.1753897913612272 -9.4319809190072803  7.5759216053814651
 -3.6369669066370935 -12.1222467649893613  9.1518425198194571
 -18.5522197720842001 -38.1809462182843120 10.7277641252009239
 -19.0137968873600691 -40.8712120642663947 12.3036850396389106
 -9.4790748328071697 -15.7356659575613360 13.8796066450203774
 -9.9406519480830333 -18.4259318035434134 15.4555275594583712
 -7.2503856135301401 -17.9643551768383603 17.0314491648398345
 -3.6369657024219433 -12.1222479692045084  6.0000000000000009
 -19.0137956831449131 -40.8712132684815401  9.1518425198194571
 -9.9406507438678826 -18.4259330077585624 12.3036850396389106
 -7.7119615245908513 -20.6546222270355919 15.4555275594583712
 -6.3272323113612252 -12.5838234390072756  7.5759216053814651
 -21.7040622920841990 -41.3327887382843073 10.7277641252009239
 -19.4753730728071695 -43.5614779575613369 13.8796066450203774
 -10.4022281335301390 -21.1161976968383627 17.0314491648398345
 -22.1656394059141242 -44.0230545857123374  6.0000000000000009
 -6.7888082224219426 -15.2740904892045126  6.0000000000000009
 -13.0924944666370884 -21.5777743249893597  9.1518425198194571
 -22.1656382031449155 -44.0230557884815425  9.1518425198194571
 -10.8638052473600570 -23.8064635442663892 12.3036850396389106
 -13.0924932638678797 -21.5777755277585683 12.3036850396389106
 -8.6351160280830292 -26.0351527635434152 15.4555275594583712
 -10.8638040445908501 -23.8064647470355979 15.4555275594583712
 -7.7119627259141232 -20.6546210257123342  6.0000000000000009
 -22.6272155913612281 -46.7133204790072796  7.5759216053814651
 -9.9406507424219441 -18.4259330092045062  6.0000000000000009
 -16.2443369866370979 -24.7296168449893585  9.1518425198194571
 -13.5540706520841958 -24.2680402182842982 10.7277641252009239
 -7.7119615231449128 -20.6546222284815322  9.1518425198194571
 -14.0156477673600630 -26.9583060642663774 12.3036850396389106
 -11.3253814328071645 -26.4967294375613207 13.8796066450203774
 -16.2443357838678892 -24.7296180477585636 12.3036850396389106
 -11.7869585480830317 -29.1869952835434070 15.4555275594583712
 -2.2522364935301322 -4.0514491768383500 17.0314491648398345
 -14.0156465645908579 -26.9583072670355897 15.4555275594583712
 -10.8638052459141274 -23.8064635457123330  6.0000000000000009
 -8.1735389113612271 -23.3448869190072799  7.5759216053814651
 -8.6351160266370943 -26.0351527649893626  9.1518425198194571
 -16.7059131720842018 -27.4198827382843007 10.7277641252009239
 -17.1674902873600601 -30.1101485842663799 12.3036850396389106
 -14.4772239528071687 -29.6485719575613338 13.8796066450203774
 -14.9388010680830376 -32.3388378035434130 15.4555275594583712
 -12.2485347335301409 -31.8772611768383562 17.0314491648398345
 -7.9031537919901993 -14.1597449196362550  7.5759216053814651
 -5.6744645727131688 -16.3884341389132793 10.7277641252009239
 -21.0512945534361471 -45.1373994381903145 13.8796066450203774
 -11.9781496141591202 -22.6921191774673403 17.0314491648398345
 -11.0549963119902017 -17.3115874396362557  7.5759216053814651
 -8.8263070927131757 -19.5402766589132852 10.7277641252009239
 -6.5976178734361399 -21.7689658781903113 13.8796066450203774
 -15.1299921341591155 -25.8439616974673321 17.0314491648398345
 -12.9013029119901965 -28.0726509196362564  7.5759216053814651
 -10.6726136927131670 -30.3013401389132824 10.7277641252009239
 -19.2049879534361381 -34.3763359581903174 13.8796066450203774
 -16.9762987341591156 -36.6050251774673399 17.0314491648398345
 -16.0531454319901989 -31.2244934396362552  7.5759216053814651
 -13.8244562127131729 -33.4531826589132848 10.7277641252009239
 -4.7513112734361425 -11.0079023981903106 13.8796066450203774
 -20.1281412541591180 -39.7568676974673423 17.0314491648398345
 -19.2049879519902014 -34.3763359596362577  7.5759216053814651
 -16.9762987327131718 -36.6050251789132801 10.7277641252009239
 -7.9031537934361422 -14.1597449181903130 13.8796066450203774
 -5.6744645741591118 -16.3884341374673355 17.0314491648398345
 -4.7513112719902013 -11.0079023996362597  7.5759216053814651
 -20.1281412527131742 -39.7568676989132825 10.7277641252009239
 -11.0549963134361420 -17.3115874381903119 13.8796066450203774
 -8.8263070941591124 -19.5402766574673343 17.0314491648398345
 -21.0512945519901962 -45.1373994396362619  7.5759216053814651
 -11.9781496127131657 -22.6921191789132770 10.7277641252009239
 -9.7494603934361432 -24.9208083981903208 13.8796066450203774
 -18.2818346541591197 -28.9958042174673416 17.0314491648398345
 -6.5976178719901997 -21.7689658796362480  7.5759216053814651
 -15.1299921327131734 -25.8439616989132794 10.7277641252009239
 -12.9013029134361403 -28.0726509181903126 13.8796066450203774
 -10.6726136941591196 -30.3013401374673386 17.0314491648398345
 -9.7494603919901994 -24.9208083996362468  7.5759216053814651
 -18.2818346527131723 -28.9958042189132819 10.7277641252009239
 -16.0531454334361428 -31.2244934381903043 13.8796066450203774
 -13.8244562141591132 -33.4531826574673303 17.0314491648398345
 -16.7059131865045494 -27.4198827238639495 13.8796061843913989
 -14.4772239672275287 -29.6485719431409827 17.0314487042108489
 -10.4022272535829234 -21.1161985767855818  7.5759211447524848
 -8.1735380343058939 -23.3448877960626113 10.7277636645719419
 -2.2522365065045511 -4.0514491638639507 13.8796061843913989
 -17.6290664872275258 -32.8004144631409744 17.0314487042108489
 -13.5540697735829241 -24.2680410967855842  7.5759211447524848
 -11.3253805543058963 -26.4967303160626138 10.7277636645719419
 -12.2485347465045518 -31.8772611638639489 13.8796061843913989
 -3.1753898072275253 -9.4319809031409765 17.0314487042108489
 -16.7059122935829265 -27.4198836167855831  7.5759211447524848
 -14.4772230743059005 -29.6485728360626126 10.7277636645719419
 -18.5522197865045548 -38.1809462038639467 13.8796061843913989
 -9.4790748472275279 -15.7356659431409796 17.0314487042108489
 -15.4003772665045524 -35.0291036838639513 13.8796061843913989
 -6.3272323272275255 -12.5838234231409754 17.0314487042108489
 -2.2522356135829207 -4.0514500567855762  7.5759211447524848
 -17.6290655943058958 -32.8004153560626079 10.7277636645719419
 -21.7040623065045502 -41.3327887238639420 13.8796061843913989
 -19.4753730872275348 -43.5614779431409787 17.0314487042108489
 -15.4003763735829207 -35.0291045767855849  7.5759211447524848
 -6.3272314343058893 -12.5838243160626053 10.7277636645719419
 -12.2485338535829236 -31.8772620567855824  7.5759211447524848
 -3.1753889143058949 -9.4319817960626082 10.7277636645719419
 -7.2503856265045528 -17.9643551638639494 13.8796061843913989
 -22.6272156072275301 -46.7133204631409740 17.0314487042108489
 -18.5522188935829249 -38.1809470967855802  7.5759211447524848
 -9.4790739543058908 -15.7356668360626042 10.7277636645719419
 -10.4022281465045534 -21.1161976838639447 13.8796061843913989
 -8.1735389272275238 -23.3448869031409707 17.0314487042108489
 -21.7040614135829166 -41.3327896167855826  7.5759211447524848
 -19.4753721943058906 -43.5614788360626122 10.7277636645719419
 -13.5540706665045541 -24.2680402038639471 13.8796061843913989
 -11.3253814472275192 -26.4967294231409767 17.0314487042108489
 -7.2503847335829246 -17.9643560567855793  7.5759211447524848
 -22.6272147143059001 -46.7133213560626075 10.7277636645719419
