Cl Na  O                                
   1.00000000000000     
    -9.0040101632590037    8.9407600189098595   -0.0228127431280630
   -18.0096601755091399   -0.0017651435879212   -0.0356094088456681
     0.0871484374713766   -0.0240685453940860   43.6826041591003715
   Cl   Na   O 
    32   204    32
Direct
  0.1513740983613090  0.0489072903145193  0.0794603163511253
  0.1510156032046557  0.0562497175051114  0.1851096605560493
  0.1534308163157401  0.0541922090979752  0.2890294293399310
  0.1524257278540450  0.0521303735022575  0.3886606386929884
  0.1617563313961005  0.2925818695198487  0.0833055375358500
  0.1509927389120153  0.3065723408139693  0.1853893042603770
  0.1531769788261369  0.3042019490783032  0.2898468345330550
  0.1522140576727828  0.3047858980022667  0.3899473261197517
  0.1552215894703290  0.5548527313787183  0.0836289685114391
  0.1519511969780369  0.5558381764164789  0.1855660724088918
  0.1526057027517835  0.5547737960535492  0.2887801708388900
  0.1512290517557874  0.5538817348184168  0.3912066041777778
  0.1513369808415794  0.8036620053711598  0.0783618829606185
  0.1497339814420044  0.8067437396964997  0.1853736721438428
  0.1524512355582771  0.8030802527062464  0.2902327798472388
  0.1550052676625782  0.8213446871758395  0.3934146040143219
  0.6525022810544674  0.0478917249199743  0.0827252800975637
  0.6511539811837957  0.0529089273171751  0.1848939067076417
  0.6516230989857726  0.0501954032967031  0.2869215692043686
  0.6712269180670873  0.0294921365722803  0.3917437199165704
  0.6566501267209615  0.2956252047898550  0.0817126728316030
  0.6497698285993868  0.3031290196487823  0.1853251129242171
  0.6539973553414752  0.2986203300023940  0.2874613077248283
  0.6644211680487621  0.2980387395605576  0.3899904153128441
  0.6415165131743410  0.5485821273533352  0.0847175363050769
  0.6510635018442383  0.5524775262252211  0.1856704381788889
  0.6529108664829705  0.5496709478670205  0.2868586677682869
  0.6382914740219949  0.5471005329936870  0.3909465927243852
  0.6429916520725506  0.8060652672335180  0.0833177343866803
  0.6527072857488451  0.8032038083924617  0.1858864127104266
  0.6517011269591906  0.7996773613129915  0.2872366123573552
  0.6425477945441740  0.8076071826789302  0.3896413263011125
  0.3684031203934642  0.0643930836741538  0.0826013148539299
  0.1548097188250250  0.1737408987070640  0.0222987860681170
  0.4305687909756595  0.0294240174062565  0.1856522319683182
  0.1519438316262499  0.1859125296928648  0.1412150338208241
  0.3774334041369158  0.0714005291397675  0.2886493250181278
  0.1521064498857163  0.1879903699825453  0.2312029341582249
  0.4281341124842404  0.0407954610101336  0.3913073513153675
  0.1534406826919806  0.1626044759362631  0.3448698663743680
  0.3959505799298453  0.1794483024419745  0.0359889941640578
  0.4458939237563471  0.2744210934652944  0.0840938127650853
  0.1432157819157391  0.4311008962073283  0.0442690970621616
  0.4185089267148642  0.1672554921888245  0.1361712741210444
  0.3719277632557510  0.3216637936092936  0.1861233576035169
  0.1499805179468972  0.4159556867397702  0.1284629331833242
  0.4260901548012300  0.1655174386486190  0.2346309632854150
  0.4372793591801032  0.2778784663153785  0.2890702715939387
  0.1522428063717151  0.4164523638972290  0.2439580471873723
  0.3710932861689978  0.1942596297659971  0.3417138570532370
  0.3648083993758359  0.3291352414089113  0.3916939352485361
  0.1525195441289560  0.4411776601496881  0.3338038587833534
  0.4013636025755826  0.4244492661344893  0.0400211043623486
  0.3707991260858921  0.5783964287829295  0.0831588174893877
  0.1538011729304706  0.6702045214896587  0.0243788288953511
  0.3798655083168102  0.4378253511011003  0.1328489018375005
  0.4314713641366900  0.5298774031603024  0.1859483228232415
  0.1520556054052237  0.6842873781889474  0.1415813211716172
  0.3800902185523910  0.4387731565135813  0.2406229914288967
  0.3782586612374242  0.5751101477558480  0.2889043726491635
  0.1519066430978880  0.6879513911161281  0.2318834314738240
  0.4371213266112167  0.4099518415308960  0.3361471418284163
  0.4279820836301546  0.5261611675488338  0.3912262260593815
  0.1534017812967292  0.6588069748665272  0.3427402616419108
  0.4080491241672927  0.6690559365447117  0.0261632071230977
  0.4341728668668557  0.7804909711431024  0.0805540674241852
  0.1533266317350757  0.9227930052377630  0.0324072567989961
  0.4269885888633119  0.6639363164364048  0.1368781876263990
  0.3639411185383696  0.8256012229562392  0.1855910587182658
  0.1523485433504105  0.9131183386443880  0.1263405250887175
  0.4272539389761925  0.6649817251727150  0.2343116415172874
  0.4300669639044680  0.7804220752179477  0.2893234808390213
  0.1518713729761205  0.9143074653215408  0.2440206581135064
  0.3758143650958409  0.6905454883573339  0.3461152459451304
  0.3763138197000855  0.8297298338713189  0.3916483423829216
  0.1527215321943679  0.9385080009552971  0.3366575611708342
  0.4069712995119898  0.9229907925646625  0.0283797640127087
  0.3818090721114950  0.9355468107456683  0.1317500018706946
  0.3777693228635829  0.9392606034590026  0.2402590023950188
  0.4271787886017521  0.9160110898655386  0.3376013727296017
  0.8726691750176623  0.0594198939255416  0.0802275286410442
  0.6411632035778246  0.1823734698723568  0.0200775812817985
  0.9358009465484302  0.0404637602687462  0.1853949848575475
  0.6532391599016574  0.1853661688327042  0.1411078881599425
  0.8746411975131806  0.0578814912588100  0.2896499703715082
  0.6529850375041624  0.1901363156286651  0.2322142071974797
  0.9321309563882407  0.0491129470809782  0.3921444294419909
  0.6534026404330872  0.1642621168012167  0.3490104228314226
  0.9028335449006325  0.1761435486680926  0.0304188480893218
  0.9386042752436426  0.2896749619199703  0.0822679882909321
  0.6556102581245391  0.4249455944285614  0.0402288169767953
  0.9245309755438613  0.1641064047873770  0.1302305092159285
  0.8742793445656241  0.3036901014845988  0.1857045935191407
  0.6523363127797450  0.4163247410493379  0.1277457720906469
  0.9264431935965360  0.1645628326216501  0.2410215569190320
  0.9288648503061108  0.2950211113908282  0.2887080325523764
  0.6524782179333588  0.4170799183392742  0.2434944479834578
  0.8793848083884223  0.1898068291919550  0.3389328695332550
  0.8816093380661461  0.3169011948777504  0.3913590790604213
  0.6528987172538313  0.4432238265821543  0.3365877679524127
  0.9128084781861890  0.4249321363835048  0.0286229092046444
  0.8425149618159210  0.5702025629133469  0.0856304711236256
  0.6655872699636760  0.6701563935453638  0.0194433920962375
  0.8814880346936552  0.4355674234240461  0.1390289640380878
  0.9349529575233914  0.5426513720379920  0.1865700888121272
  0.6485368816515789  0.6883081925369233  0.1428595439021407
  0.8792683499266126  0.4385424166419372  0.2342417419014547
  0.8678932947569449  0.5619889745938793  0.2889492912931217
  0.6510550891905733  0.6905231801017362  0.2321063646583138
  0.9348876870908391  0.4121378723813876  0.3414734769590375
  0.9360724418830442  0.5426256943618489  0.3917307523739839
  0.6522946895249858  0.6642947843883128  0.3482456575217196
  0.9024521839572603  0.6715199160766563  0.0390026615303093
  0.9363174949958984  0.7940253524532099  0.0826696119537194
  0.6531077030917718  0.9238113485137476  0.0404016177505762
  0.9198012512236099  0.6674495042010025  0.1315487482135223
  0.8746379494671318  0.8079082038047855  0.1858235079776415
  0.6515319935087880  0.9183873923107455  0.1282513019747052
  0.9229577245259240  0.6676581352534713  0.2410685731112112
  0.9257122952199928  0.8017831044014685  0.2889961225911295
  0.6511378699708820  0.9177252629730346  0.2432478981647897
  0.8692975201410947  0.6934400057012479  0.3359751289112866
  0.8800187356557109  0.7977773719866745  0.3911415645648095
  0.6538735746131932  0.9436991050987349  0.3368548798867720
  0.9000458687536028  0.9233014346797995  0.0246650999081248
  0.8801911393268902  0.9377155229680362  0.1368554967298460
  0.8775940088965014  0.9399102289106898  0.2341393076379568
  0.9306556859990295  0.9129482679601451  0.3463736559256554
  0.1671638604223115  0.0652153901066302  0.4895343150276449
  0.1626946736759963  0.2714987227727879  0.4529097541853840
  0.1674435985566421  0.0654960738605643  0.5955099804245256
  0.1654836129316100  0.2278747622530067  0.5475140377420883
  0.1686606025301792  0.0670845759324300  0.6896612802499346
  0.1716830621469311  0.2299829364776610  0.6431869595952661
  0.1673444594810602  0.0727121506162151  0.7836097773268850
  0.1711504575546055  0.2335818889236085  0.7352115681425040
  0.1700308434963690  0.0829704540615070  0.8724361886206663
  0.1662733509141625  0.2479039138537753  0.8277808872095644
  0.1660058808944192  0.0731612722567256  0.9488657781575662
  0.1675332980625857  0.2660213638445633  0.9330693477972528
  0.4783360890625376  0.0637362044552691  0.5019441643127810
  0.4992143518688735  0.2351103877162573  0.4697421276801094
  0.4994981276557779  0.0662920196392889  0.5951892268104121
  0.5202143628136042  0.2254759948547453  0.5500260539210696
  0.5053561780301251  0.0668088769836222  0.6889434501664525
  0.5053837186560984  0.2342226730609792  0.6427305092593356
  0.4990434021199843  0.0701247186229325  0.7827619818244942
  0.5049612864017687  0.2347916420567882  0.7364941124852462
  0.4690314831855934  0.0784582352211601  0.8807116087592087
  0.4940432130161843  0.2407619396646518  0.8319038484203528
  0.4527810092056902  0.0458840324786866  0.9792283125375439
  0.5295689990357617  0.2240493128046147  0.9211248019045110
  0.1740916007700830  0.3993460549896699  0.5110460934925900
  0.1605161204893240  0.5536983987817651  0.4556891423819085
  0.1757361045799111  0.3911754514251320  0.5966816475788341
  0.1676762675191134  0.5657569823172143  0.5529462204769761
  0.1718307176816412  0.3991792894288616  0.6882755802162098
  0.1717967220772905  0.5670363817508398  0.6421358214809134
  0.1725101030811081  0.4008336082727159  0.7800567363912757
  0.1703396484047862  0.5687285176510745  0.7352081222256945
  0.1681834130882390  0.4075265496575465  0.8801643225904147
  0.1664312159932338  0.5643994124013553  0.8273193053280528
  0.3167592847242915  0.3451988372510414  0.9830141706691476
  0.1666348532944212  0.5618615415016934  0.9303607882733009
  0.8588746266603960  0.0659483507169079  0.5015060061955237
  0.7561764943554871  0.2617818755171621  0.4528505479207761
  0.8448472835188131  0.0670210563035343  0.5975743195555878
  0.8381309226037580  0.2297254642993810  0.5469912604424232
  0.8381552157996159  0.0685296843480363  0.6897924148769038
  0.8395834838326104  0.2329066142407600  0.6435368177261258
  0.8377449272270990  0.0695469717471938  0.7836809019601857
  0.8355830341738948  0.2356754787207181  0.7369671499259510
  0.8432291973157053  0.0685424155623395  0.8710258615779760
  0.8233386995262812  0.2489751921381531  0.8305376398423329
  0.9178613042747555  0.0440351116280910  0.9740367604196773
  0.7988966128624625  0.2455656203661538  0.9190658853665012
  0.4804871823808210  0.4247455384090522  0.5050279051891645
  0.5549453604588312  0.5684140462468136  0.4545334225938353
  0.5095637332891522  0.4021537691832761  0.5954605180470733
  0.5126781761458609  0.5725763124484202  0.5468212753885717
  0.5044357697562304  0.4014652019316704  0.6890446242900021
  0.5032701768097289  0.5699159971967046  0.6427694108978134
  0.4988836153042385  0.4048924434275060  0.7830537688588119
  0.5030460575924389  0.5691931021185122  0.7367312625127810
  0.4714250340867470  0.4284045936068197  0.8793640952473675
  0.5193719807142892  0.5649820664061929  0.8307675177742005
  0.4465727246088844  0.4962452719760929  0.9803121275592905
  0.5424293716607430  0.5699876933949569  0.9243015338707475
  0.1700036612056677  0.7203165512267033  0.5036228529573664
  0.1641343330969583  0.8646369339765342  0.4550394751549676
  0.1710840206089335  0.7355258385731261  0.5948224923382809
  0.1659417144897709  0.9021782129216069  0.5469726072762454
  0.1702515997254503  0.7350350789086960  0.6890212415819602
  0.1679550545476668  0.9007538811344745  0.6438122304889184
  0.1706758087210231  0.7330611986908584  0.7837480318016061
  0.1717689017990846  0.8999627614074976  0.7377746823939029
  0.1718853313494654  0.7259885982824427  0.8735480931006065
  0.1865952960429733  0.8935456193873762  0.8269740221008334
  0.1619333760356275  0.7582208249181531  0.9510054763295003
  0.1721383085258079  0.9073794947659608  0.9091985868960091
  0.8523223578416409  0.3764760711685091  0.5013404437905908
  0.8361308004651360  0.5682881588862576  0.4724641808739161
  0.8379239493596256  0.3962149534178309  0.5959769407908350
  0.8217475093550222  0.5738405077306659  0.5514630876093313
  0.8368115782133445  0.4013933341536242  0.6887867084714265
  0.8293144007617852  0.5726009555170930  0.6422461175604898
  0.8392366522218837  0.4023395796317304  0.7814433476180784
  0.8344805886927700  0.5701981269664546  0.7344160838601308
  0.8651732825458531  0.3924278694557410  0.8817031768758880
  0.8454038090616175  0.5641419439628248  0.8302330560213654
  0.8605928495723077  0.3334835229179372  0.9782151142647524
  0.8438911321020417  0.5699124027057076  0.9391309543365135
  0.4753720418360531  0.7541949037237516  0.5026056142114397
  0.5726518666258160  0.8508509016547936  0.4533191530672710
  0.4902221749611247  0.7433635199393267  0.5973079534425356
  0.4916394817906524  0.9024317366077701  0.5470324943647420
  0.4993464820373740  0.7374779437874068  0.6892904962935202
  0.4990238109097341  0.9030784921904857  0.6430417038906642
  0.5140550871758293  0.7314679382990474  0.7820948689200412
  0.5006404037213282  0.9028627576997271  0.7366100757294309
  0.5275319965648527  0.7278206749737597  0.8773268588108815
  0.5154534572369400  0.8957855102201554  0.8304191974143214
  0.3931407105142219  0.8023034661711675  0.9748150041937910
  0.5476432666443245  0.8691629408136942  0.9249731063422819
  0.8465696282141073  0.7441452707180045  0.5061253131603830
  0.7813065038392504  0.9532434425273594  0.4552945675644409
  0.8249341105543927  0.7469683295569135  0.5951266841872140
  0.8282534585654853  0.9186518555863791  0.5462155642493312
  0.8338273386469978  0.7389349137051209  0.6886736503221570
  0.8394670553113200  0.9031842380898073  0.6426735257681742
  0.8347176164224941  0.7356308190743368  0.7818348680204715
  0.8390280146972233  0.9021930091496561  0.7368903897986249
  0.8585916239297642  0.7253187816504340  0.8796451334978274
  0.8254998594882491  0.9050994984465425  0.8305062018033175
  0.8655271521355843  0.7866997853334230  0.9798341728389304
  0.8040368860548446  0.9356795356430164  0.9199709929025801
  0.4061862032449624  0.0503876967112815  0.0301903217428344
  0.4006052840248668  0.0508498128444466  0.1341277008646408
  0.4013545571483972  0.0528569146522506  0.2370065025557438
  0.4033175257345367  0.0539826822053241  0.3400830847099465
  0.3925182379699230  0.3055114596406898  0.0327421473596562
  0.4017452979459035  0.3017318346645393  0.1344712768903773
  0.4020401401220992  0.3025415612228539  0.2376044593367718
  0.4040821034575134  0.3022298565543586  0.3409104761402384
  0.4068718189714888  0.5439192929433376  0.0309400160078616
  0.4012740791934336  0.5520362270606851  0.1344612289017588
  0.4021962953225219  0.5527993803692896  0.2373227929566300
  0.4016132495841583  0.5517116921393326  0.3404342364865421
  0.4114289148351239  0.7940252718113245  0.0272620416539859
  0.4010067982662092  0.8013664999102501  0.1334545322086833
  0.4003165719168520  0.8029956028648583  0.2371865921962214
  0.4055972723730062  0.8008324477504637  0.3406871515919439
  0.8949259196362708  0.0529032877363813  0.0268107200184036
  0.9028169687634784  0.0505445539749662  0.1329266346338421
  0.9031868115211895  0.0515776846890089  0.2373280360241533
  0.9000292699723209  0.0531784168470785  0.3410813009898699
  0.9027852770407846  0.3038968848399254  0.0297646764766792
  0.9033491994051411  0.2997049326165936  0.1338804884017592
  0.9026913677516105  0.3016255653616026  0.2370357680726974
  0.9035906905129936  0.3038171209635019  0.3400705498083518
  0.8981691260313952  0.5518940572630429  0.0370119426572849
  0.8987289180389719  0.5526026066557645  0.1353511903127055
  0.9022936939422553  0.5524866368516935  0.2376858111934817
  0.9013540129908038  0.5532683894828787  0.3407215930324904
  0.9007481675790744  0.7962139614975765  0.0305583335485015
  0.9026274402082988  0.8017033518382370  0.1339612685411696
  0.9016360927146014  0.8032300995295698  0.2372951394411592
  0.9048035822854127  0.7999228340545640  0.3404288637772468
 
  0.00000000E+00  0.00000000E+00  0.00000000E+00
  0.00000000E+00  0.00000000E+00  0.00000000E+00
  0.00000000E+00  0.00000000E+00  0.00000000E+00
  0.00000000E+00  0.00000000E+00  0.00000000E+00
  0.00000000E+00  0.00000000E+00  0.00000000E+00
  0.00000000E+00  0.00000000E+00  0.00000000E+00
  0.00000000E+00  0.00000000E+00  0.00000000E+00
  0.00000000E+00  0.00000000E+00  0.00000000E+00
  0.00000000E+00  0.00000000E+00  0.00000000E+00
  0.00000000E+00  0.00000000E+00  0.00000000E+00
  0.00000000E+00  0.00000000E+00  0.00000000E+00
  0.00000000E+00  0.00000000E+00  0.00000000E+00
  0.00000000E+00  0.00000000E+00  0.00000000E+00
  0.00000000E+00  0.00000000E+00  0.00000000E+00
  0.00000000E+00  0.00000000E+00  0.00000000E+00
  0.00000000E+00  0.00000000E+00  0.00000000E+00
  0.00000000E+00  0.00000000E+00  0.00000000E+00
  0.00000000E+00  0.00000000E+00  0.00000000E+00
  0.00000000E+00  0.00000000E+00  0.00000000E+00
  0.00000000E+00  0.00000000E+00  0.00000000E+00
  0.00000000E+00  0.00000000E+00  0.00000000E+00
  0.00000000E+00  0.00000000E+00  0.00000000E+00
  0.00000000E+00  0.00000000E+00  0.00000000E+00
  0.00000000E+00  0.00000000E+00  0.00000000E+00
  0.00000000E+00  0.00000000E+00  0.00000000E+00
  0.00000000E+00  0.00000000E+00  0.00000000E+00
  0.00000000E+00  0.00000000E+00  0.00000000E+00
  0.00000000E+00  0.00000000E+00  0.00000000E+00
  0.00000000E+00  0.00000000E+00  0.00000000E+00
  0.00000000E+00  0.00000000E+00  0.00000000E+00
  0.00000000E+00  0.00000000E+00  0.00000000E+00
  0.00000000E+00  0.00000000E+00  0.00000000E+00
  0.00000000E+00  0.00000000E+00  0.00000000E+00
  0.00000000E+00  0.00000000E+00  0.00000000E+00
  0.00000000E+00  0.00000000E+00  0.00000000E+00
  0.00000000E+00  0.00000000E+00  0.00000000E+00
  0.00000000E+00  0.00000000E+00  0.00000000E+00
  0.00000000E+00  0.00000000E+00  0.00000000E+00
  0.00000000E+00  0.00000000E+00  0.00000000E+00
  0.00000000E+00  0.00000000E+00  0.00000000E+00
  0.00000000E+00  0.00000000E+00  0.00000000E+00
  0.00000000E+00  0.00000000E+00  0.00000000E+00
  0.00000000E+00  0.00000000E+00  0.00000000E+00
  0.00000000E+00  0.00000000E+00  0.00000000E+00
  0.00000000E+00  0.00000000E+00  0.00000000E+00
  0.00000000E+00  0.00000000E+00  0.00000000E+00
  0.00000000E+00  0.00000000E+00  0.00000000E+00
  0.00000000E+00  0.00000000E+00  0.00000000E+00
  0.00000000E+00  0.00000000E+00  0.00000000E+00
  0.00000000E+00  0.00000000E+00  0.00000000E+00
  0.00000000E+00  0.00000000E+00  0.00000000E+00
  0.00000000E+00  0.00000000E+00  0.00000000E+00
  0.00000000E+00  0.00000000E+00  0.00000000E+00
  0.00000000E+00  0.00000000E+00  0.00000000E+00
  0.00000000E+00  0.00000000E+00  0.00000000E+00
  0.00000000E+00  0.00000000E+00  0.00000000E+00
  0.00000000E+00  0.00000000E+00  0.00000000E+00
  0.00000000E+00  0.00000000E+00  0.00000000E+00
  0.00000000E+00  0.00000000E+00  0.00000000E+00
  0.00000000E+00  0.00000000E+00  0.00000000E+00
  0.00000000E+00  0.00000000E+00  0.00000000E+00
  0.00000000E+00  0.00000000E+00  0.00000000E+00
  0.00000000E+00  0.00000000E+00  0.00000000E+00
  0.00000000E+00  0.00000000E+00  0.00000000E+00
  0.00000000E+00  0.00000000E+00  0.00000000E+00
  0.00000000E+00  0.00000000E+00  0.00000000E+00
  0.00000000E+00  0.00000000E+00  0.00000000E+00
  0.00000000E+00  0.00000000E+00  0.00000000E+00
  0.00000000E+00  0.00000000E+00  0.00000000E+00
  0.00000000E+00  0.00000000E+00  0.00000000E+00
  0.00000000E+00  0.00000000E+00  0.00000000E+00
  0.00000000E+00  0.00000000E+00  0.00000000E+00
  0.00000000E+00  0.00000000E+00  0.00000000E+00
  0.00000000E+00  0.00000000E+00  0.00000000E+00
  0.00000000E+00  0.00000000E+00  0.00000000E+00
  0.00000000E+00  0.00000000E+00  0.00000000E+00
  0.00000000E+00  0.00000000E+00  0.00000000E+00
  0.00000000E+00  0.00000000E+00  0.00000000E+00
  0.00000000E+00  0.00000000E+00  0.00000000E+00
  0.00000000E+00  0.00000000E+00  0.00000000E+00
  0.00000000E+00  0.00000000E+00  0.00000000E+00
  0.00000000E+00  0.00000000E+00  0.00000000E+00
  0.00000000E+00  0.00000000E+00  0.00000000E+00
  0.00000000E+00  0.00000000E+00  0.00000000E+00
  0.00000000E+00  0.00000000E+00  0.00000000E+00
  0.00000000E+00  0.00000000E+00  0.00000000E+00
  0.00000000E+00  0.00000000E+00  0.00000000E+00
  0.00000000E+00  0.00000000E+00  0.00000000E+00
  0.00000000E+00  0.00000000E+00  0.00000000E+00
  0.00000000E+00  0.00000000E+00  0.00000000E+00
  0.00000000E+00  0.00000000E+00  0.00000000E+00
  0.00000000E+00  0.00000000E+00  0.00000000E+00
  0.00000000E+00  0.00000000E+00  0.00000000E+00
  0.00000000E+00  0.00000000E+00  0.00000000E+00
  0.00000000E+00  0.00000000E+00  0.00000000E+00
  0.00000000E+00  0.00000000E+00  0.00000000E+00
  0.00000000E+00  0.00000000E+00  0.00000000E+00
  0.00000000E+00  0.00000000E+00  0.00000000E+00
  0.00000000E+00  0.00000000E+00  0.00000000E+00
  0.00000000E+00  0.00000000E+00  0.00000000E+00
  0.00000000E+00  0.00000000E+00  0.00000000E+00
  0.00000000E+00  0.00000000E+00  0.00000000E+00
  0.00000000E+00  0.00000000E+00  0.00000000E+00
  0.00000000E+00  0.00000000E+00  0.00000000E+00
  0.00000000E+00  0.00000000E+00  0.00000000E+00
  0.00000000E+00  0.00000000E+00  0.00000000E+00
  0.00000000E+00  0.00000000E+00  0.00000000E+00
  0.00000000E+00  0.00000000E+00  0.00000000E+00
  0.00000000E+00  0.00000000E+00  0.00000000E+00
  0.00000000E+00  0.00000000E+00  0.00000000E+00
  0.00000000E+00  0.00000000E+00  0.00000000E+00
  0.00000000E+00  0.00000000E+00  0.00000000E+00
  0.00000000E+00  0.00000000E+00  0.00000000E+00
  0.00000000E+00  0.00000000E+00  0.00000000E+00
  0.00000000E+00  0.00000000E+00  0.00000000E+00
  0.00000000E+00  0.00000000E+00  0.00000000E+00
  0.00000000E+00  0.00000000E+00  0.00000000E+00
  0.00000000E+00  0.00000000E+00  0.00000000E+00
  0.00000000E+00  0.00000000E+00  0.00000000E+00
  0.00000000E+00  0.00000000E+00  0.00000000E+00
  0.00000000E+00  0.00000000E+00  0.00000000E+00
  0.00000000E+00  0.00000000E+00  0.00000000E+00
  0.00000000E+00  0.00000000E+00  0.00000000E+00
  0.00000000E+00  0.00000000E+00  0.00000000E+00
  0.00000000E+00  0.00000000E+00  0.00000000E+00
  0.00000000E+00  0.00000000E+00  0.00000000E+00
  0.00000000E+00  0.00000000E+00  0.00000000E+00
  0.00000000E+00  0.00000000E+00  0.00000000E+00
  0.00000000E+00  0.00000000E+00  0.00000000E+00
  0.00000000E+00  0.00000000E+00  0.00000000E+00
  0.00000000E+00  0.00000000E+00  0.00000000E+00
  0.00000000E+00  0.00000000E+00  0.00000000E+00
  0.00000000E+00  0.00000000E+00  0.00000000E+00
  0.00000000E+00  0.00000000E+00  0.00000000E+00
  0.00000000E+00  0.00000000E+00  0.00000000E+00
  0.00000000E+00  0.00000000E+00  0.00000000E+00
  0.00000000E+00  0.00000000E+00  0.00000000E+00
  0.00000000E+00  0.00000000E+00  0.00000000E+00
  0.00000000E+00  0.00000000E+00  0.00000000E+00
  0.00000000E+00  0.00000000E+00  0.00000000E+00
  0.00000000E+00  0.00000000E+00  0.00000000E+00
  0.00000000E+00  0.00000000E+00  0.00000000E+00
  0.00000000E+00  0.00000000E+00  0.00000000E+00
  0.00000000E+00  0.00000000E+00  0.00000000E+00
  0.00000000E+00  0.00000000E+00  0.00000000E+00
  0.00000000E+00  0.00000000E+00  0.00000000E+00
  0.00000000E+00  0.00000000E+00  0.00000000E+00
  0.00000000E+00  0.00000000E+00  0.00000000E+00
  0.00000000E+00  0.00000000E+00  0.00000000E+00
  0.00000000E+00  0.00000000E+00  0.00000000E+00
  0.00000000E+00  0.00000000E+00  0.00000000E+00
  0.00000000E+00  0.00000000E+00  0.00000000E+00
  0.00000000E+00  0.00000000E+00  0.00000000E+00
  0.00000000E+00  0.00000000E+00  0.00000000E+00
  0.00000000E+00  0.00000000E+00  0.00000000E+00
  0.00000000E+00  0.00000000E+00  0.00000000E+00
  0.00000000E+00  0.00000000E+00  0.00000000E+00
  0.00000000E+00  0.00000000E+00  0.00000000E+00
  0.00000000E+00  0.00000000E+00  0.00000000E+00
  0.00000000E+00  0.00000000E+00  0.00000000E+00
  0.00000000E+00  0.00000000E+00  0.00000000E+00
  0.00000000E+00  0.00000000E+00  0.00000000E+00
  0.00000000E+00  0.00000000E+00  0.00000000E+00
  0.00000000E+00  0.00000000E+00  0.00000000E+00
  0.00000000E+00  0.00000000E+00  0.00000000E+00
  0.00000000E+00  0.00000000E+00  0.00000000E+00
  0.00000000E+00  0.00000000E+00  0.00000000E+00
  0.00000000E+00  0.00000000E+00  0.00000000E+00
  0.00000000E+00  0.00000000E+00  0.00000000E+00
  0.00000000E+00  0.00000000E+00  0.00000000E+00
  0.00000000E+00  0.00000000E+00  0.00000000E+00
  0.00000000E+00  0.00000000E+00  0.00000000E+00
  0.00000000E+00  0.00000000E+00  0.00000000E+00
  0.00000000E+00  0.00000000E+00  0.00000000E+00
  0.00000000E+00  0.00000000E+00  0.00000000E+00
  0.00000000E+00  0.00000000E+00  0.00000000E+00
  0.00000000E+00  0.00000000E+00  0.00000000E+00
  0.00000000E+00  0.00000000E+00  0.00000000E+00
  0.00000000E+00  0.00000000E+00  0.00000000E+00
  0.00000000E+00  0.00000000E+00  0.00000000E+00
  0.00000000E+00  0.00000000E+00  0.00000000E+00
  0.00000000E+00  0.00000000E+00  0.00000000E+00
  0.00000000E+00  0.00000000E+00  0.00000000E+00
  0.00000000E+00  0.00000000E+00  0.00000000E+00
  0.00000000E+00  0.00000000E+00  0.00000000E+00
  0.00000000E+00  0.00000000E+00  0.00000000E+00
  0.00000000E+00  0.00000000E+00  0.00000000E+00
  0.00000000E+00  0.00000000E+00  0.00000000E+00
  0.00000000E+00  0.00000000E+00  0.00000000E+00
  0.00000000E+00  0.00000000E+00  0.00000000E+00
  0.00000000E+00  0.00000000E+00  0.00000000E+00
  0.00000000E+00  0.00000000E+00  0.00000000E+00
  0.00000000E+00  0.00000000E+00  0.00000000E+00
  0.00000000E+00  0.00000000E+00  0.00000000E+00
  0.00000000E+00  0.00000000E+00  0.00000000E+00
  0.00000000E+00  0.00000000E+00  0.00000000E+00
  0.00000000E+00  0.00000000E+00  0.00000000E+00
  0.00000000E+00  0.00000000E+00  0.00000000E+00
  0.00000000E+00  0.00000000E+00  0.00000000E+00
  0.00000000E+00  0.00000000E+00  0.00000000E+00
  0.00000000E+00  0.00000000E+00  0.00000000E+00
  0.00000000E+00  0.00000000E+00  0.00000000E+00
  0.00000000E+00  0.00000000E+00  0.00000000E+00
  0.00000000E+00  0.00000000E+00  0.00000000E+00
  0.00000000E+00  0.00000000E+00  0.00000000E+00
  0.00000000E+00  0.00000000E+00  0.00000000E+00
  0.00000000E+00  0.00000000E+00  0.00000000E+00
  0.00000000E+00  0.00000000E+00  0.00000000E+00
  0.00000000E+00  0.00000000E+00  0.00000000E+00
  0.00000000E+00  0.00000000E+00  0.00000000E+00
  0.00000000E+00  0.00000000E+00  0.00000000E+00
  0.00000000E+00  0.00000000E+00  0.00000000E+00
  0.00000000E+00  0.00000000E+00  0.00000000E+00
  0.00000000E+00  0.00000000E+00  0.00000000E+00
  0.00000000E+00  0.00000000E+00  0.00000000E+00
  0.00000000E+00  0.00000000E+00  0.00000000E+00
  0.00000000E+00  0.00000000E+00  0.00000000E+00
  0.00000000E+00  0.00000000E+00  0.00000000E+00
  0.00000000E+00  0.00000000E+00  0.00000000E+00
  0.00000000E+00  0.00000000E+00  0.00000000E+00
  0.00000000E+00  0.00000000E+00  0.00000000E+00
  0.00000000E+00  0.00000000E+00  0.00000000E+00
  0.00000000E+00  0.00000000E+00  0.00000000E+00
  0.00000000E+00  0.00000000E+00  0.00000000E+00
  0.00000000E+00  0.00000000E+00  0.00000000E+00
  0.00000000E+00  0.00000000E+00  0.00000000E+00
  0.00000000E+00  0.00000000E+00  0.00000000E+00
  0.00000000E+00  0.00000000E+00  0.00000000E+00
  0.00000000E+00  0.00000000E+00  0.00000000E+00
  0.00000000E+00  0.00000000E+00  0.00000000E+00
  0.00000000E+00  0.00000000E+00  0.00000000E+00
  0.00000000E+00  0.00000000E+00  0.00000000E+00
  0.00000000E+00  0.00000000E+00  0.00000000E+00
  0.00000000E+00  0.00000000E+00  0.00000000E+00
  0.00000000E+00  0.00000000E+00  0.00000000E+00
  0.00000000E+00  0.00000000E+00  0.00000000E+00
  0.00000000E+00  0.00000000E+00  0.00000000E+00
  0.00000000E+00  0.00000000E+00  0.00000000E+00
  0.00000000E+00  0.00000000E+00  0.00000000E+00
  0.00000000E+00  0.00000000E+00  0.00000000E+00
  0.00000000E+00  0.00000000E+00  0.00000000E+00
  0.00000000E+00  0.00000000E+00  0.00000000E+00
  0.00000000E+00  0.00000000E+00  0.00000000E+00
  0.00000000E+00  0.00000000E+00  0.00000000E+00
  0.00000000E+00  0.00000000E+00  0.00000000E+00
  0.00000000E+00  0.00000000E+00  0.00000000E+00
  0.00000000E+00  0.00000000E+00  0.00000000E+00
  0.00000000E+00  0.00000000E+00  0.00000000E+00
  0.00000000E+00  0.00000000E+00  0.00000000E+00
  0.00000000E+00  0.00000000E+00  0.00000000E+00
  0.00000000E+00  0.00000000E+00  0.00000000E+00
  0.00000000E+00  0.00000000E+00  0.00000000E+00
  0.00000000E+00  0.00000000E+00  0.00000000E+00
  0.00000000E+00  0.00000000E+00  0.00000000E+00
  0.00000000E+00  0.00000000E+00  0.00000000E+00
  0.00000000E+00  0.00000000E+00  0.00000000E+00
  0.00000000E+00  0.00000000E+00  0.00000000E+00
  0.00000000E+00  0.00000000E+00  0.00000000E+00
  0.00000000E+00  0.00000000E+00  0.00000000E+00
  0.00000000E+00  0.00000000E+00  0.00000000E+00
  0.00000000E+00  0.00000000E+00  0.00000000E+00
  0.00000000E+00  0.00000000E+00  0.00000000E+00
  0.00000000E+00  0.00000000E+00  0.00000000E+00
  0.00000000E+00  0.00000000E+00  0.00000000E+00
  0.00000000E+00  0.00000000E+00  0.00000000E+00
  0.00000000E+00  0.00000000E+00  0.00000000E+00
  0.00000000E+00  0.00000000E+00  0.00000000E+00
  0.00000000E+00  0.00000000E+00  0.00000000E+00
