Na  O Cl                                
   1.00000000000000     
    -3.1518425247742479   -3.1518425247742479    0.0000000000000000
     4.4573784449999989   -4.4573784449999989    0.0000000000000000
    10.7139709285007214  -10.7139709285007214   15.1518429939567856
   Na   O    Cl
     6     2     2
Direct
  0.5000001744298856  0.4999998255701144  0.3959914316953430
  0.0000001000000012  0.4999998255701144  0.5000000000000000
  0.5000001744298856  0.9999998999999988  0.3959914316953430
  0.5000001744298856  0.4999998255701144  0.5000000000000000
  0.0000001000000012  0.4999998255701144  0.6040085683046570
  0.5000001744298856  0.9999998999999988  0.5000000000000000
  0.5000001744298856  0.4999998255701144  0.5000000000000000
  0.5000001744298856  0.4999998255701144  0.6040085683046570
  0.0000001000000012  0.9999998999999988  0.4999999690346257
  0.0000001000000012  0.9999998999999988  0.6040085373392827
 
  0.00000000E+00  0.00000000E+00  0.00000000E+00
  0.00000000E+00  0.00000000E+00  0.00000000E+00
  0.00000000E+00  0.00000000E+00  0.00000000E+00
  0.00000000E+00  0.00000000E+00  0.00000000E+00
  0.00000000E+00  0.00000000E+00  0.00000000E+00
  0.00000000E+00  0.00000000E+00  0.00000000E+00
  0.00000000E+00  0.00000000E+00  0.00000000E+00
  0.00000000E+00  0.00000000E+00  0.00000000E+00
  0.00000000E+00  0.00000000E+00  0.00000000E+00
  0.00000000E+00  0.00000000E+00  0.00000000E+00
