Na  O Cl 
 1.0000000000000000
    -3.1518425247742479   -3.1518425247742479    0.0000000000000000
     4.4573784449999989   -4.4573784449999989    0.0000000000000000
    10.7139709285007214  -10.7139709285007214   15.1518429939567856
 Na  O   Cl 
   6   2   2
Cartesian
  4.8954073199566368 -8.0472509442819309  6.0000000000000000
  7.5856735940661082 -7.5856742244346131  7.5759214969783937
  7.1240968742187913 -10.2759404985440845  6.0000000000000000
  6.0097520970877145 -9.1615957214130077  7.5759214969783937
  8.7000183711971850 -8.7000190015656891  9.1518429939567874
  8.2384416513498699 -11.3902852756751614  7.5759214969783937
  6.0097520970877145 -9.1615957214130077  7.5759214969783937
  7.1240968742187913 -10.2759404985440845  9.1518429939567874
  9.8143628165661081 -9.8143634469346122  7.5759210277958546
 10.9287075936971849 -10.9287082240656890  9.1518425247742492
