Na                                      
   1.00000000000000     
    -8.8998977204543976    8.8998977204543976    0.0000000000000000
   -17.7997954409087953   -0.0000000000000006    0.0000000000000000
     0.0000000000000000    0.0000000000000000   35.0749865295452068
   Na
   108
Direct
 -0.0000006200150593 -0.0000284503051244  0.2352750037590172
  0.0004046500613868  0.1661548318801497  0.1780766928974009
 -0.0000298478054830  0.0000579652800744  0.3517981688801884
  0.0001200447300456  0.1665568034231629  0.2912582314716908
 -0.0000108105357594  0.0000156306632458  0.4704251730330945
 -0.0000517231852148  0.1667395189137362  0.4121783413012969
 -0.0000514910306170 -0.0000515975159574  0.5878157269678734
  0.0000531027159858  0.1666333502353042  0.5295817284897684
  0.0001387204592727 -0.0001146501363406  0.7087642440125400
 -0.0000055473538654  0.1665904140042785  0.6482209340254707
 -0.0002198363970972  0.0004733840412405  0.8219077542650515
  0.0000039565565993  0.1667012804104747  0.7647747014448950
  0.3329258355850347 -0.0009808332870723  0.2354542161808237
  0.3339805813019984  0.1658341056968458  0.1781892436076923
  0.3314131391569048 -0.0001820177496960  0.3522239510786229
  0.3348754057536847  0.1645612562473518  0.2919987427822531
  0.3335549243901804 -0.0016262905934034  0.4700115182182663
  0.3338099156136619  0.1656150231758082  0.4113988234767892
  0.3338803573350761 -0.0010498661511068  0.5886180865310630
  0.3334583373167648  0.1650682998176090  0.5299370226187745
  0.3348172776589243 -0.0020435848925559  0.7079937492797816
  0.3313275654561754  0.1666135699396803  0.6477923294637445
  0.3343327600760188 -0.0010870609957421  0.8218237195946311
  0.3328708373493127  0.1656566006490784  0.7645670689600218
 -0.0000083296222935  0.3332343159904805  0.2351816930723958
  0.0000722400165048  0.4997755518182905  0.1781745663293311
  0.0000176367522036  0.3333058270698319  0.3517838456330865
 -0.0000669076127242  0.5000411699514976  0.2912190433696719
  0.0000801348036264  0.3332874282747387  0.4704109667915874
 -0.0001061733587034  0.5001328498540679  0.4121378729645447
 -0.0000871965600042  0.3333545748031934  0.5878746636216015
  0.0001047015929603  0.4999868673462999  0.5295661738581363
 -0.0000161878273754  0.3333433559633316  0.7087671827280132
  0.0001268296631952  0.4999257531668498  0.6481927516061101
 -0.0000106045829701  0.3334423067503660  0.8219285680426154
 -0.0000360067083735  0.5000636173202209  0.7647540393258015
  0.6670752572165056  0.0009746499755995  0.2354831443094463
  0.6657744417363839  0.1676051740368673  0.1781768383205485
  0.6687475241436540  0.0000566587747534  0.3522216997843871
  0.6650037987995907  0.1687971905910806  0.2920089372444364
  0.6663817368401039  0.0015519970823451  0.4700804382834330
  0.6662111783779695  0.1676925397083809  0.4114076042567300
  0.6662389394454081  0.0009829333301493  0.5885838530959563
  0.6664236888625550  0.1682228376468476  0.5299380500467887
  0.6651828247557015  0.0021649249861832  0.7080112997825329
  0.6685813163531076  0.1668009359765811  0.6477897533272360
  0.6658009547057414  0.0010120336432190  0.8217831334315627
  0.6670142946793410  0.1677874985716992  0.7645416958870893
  0.3328580985110951  0.3323807635204479  0.2354419038572784
  0.3342438041081772  0.4989686892143959  0.1781845798470444
  0.3313939814265492  0.3331443635876227  0.3522105233283822
  0.3346816951066534  0.4979919046351864  0.2919551448118362
  0.3334708527341559  0.3317453854797037  0.4700174048138250
  0.3337842327915138  0.4989451947183899  0.4114042908849630
  0.3337098138245739  0.3323136251285478  0.5886103935637849
  0.3334473469480868  0.4984016642299221  0.5299461810884657
  0.3349017896686962  0.3312619113827612  0.7079930186543669
  0.3313538544209245  0.4998866078581219  0.6477678150572989
  0.3340003253410613  0.3324613517298825  0.8218295966124338
  0.3328409841135143  0.4991383740213725  0.7645672603344477
 -0.0001342472357429  0.6667975111959707  0.2352594131533206
  0.0001417070947557  0.8331239146642422  0.1781592950250538
 -0.0000913389854664  0.6667266168566678  0.3517927731007269
  0.0001760404645246  0.8332136190958757  0.2912306474268395
  0.0000509191751928  0.6666701826858282  0.4704187190375774
  0.0000897223343146  0.8333442350709386  0.4121562494282813
 -0.0000884414382247  0.6667793407618253  0.5878530210019182
  0.0000807777978442  0.8332657947447094  0.5295838054176555
  0.0002310612616328  0.6665309816946553  0.7087517455533422
  0.0000578951821490  0.8332655600355766  0.6481832621944678
 -0.0001994319419857  0.6671116704380688  0.8219122140583656
 -0.0001265284292435  0.8334830132639592  0.7647291070128472
  0.6673336347590989  0.3341770707833464  0.2354250956754994
  0.6659741672992772  0.5008394369404732  0.1781575666932179
  0.6686384083665760  0.3334410295977905  0.3521867127322458
  0.6650535478268119  0.5021174972601131  0.2920000494723264
  0.6664085820769866  0.3349146876662289  0.4700641645477520
  0.6660873723811549  0.5011535371074310  0.4113887235020408
  0.6662543042925930  0.3343814451747312  0.5886073026762602
  0.6664500169176042  0.5015530675625306  0.5299330867359802
  0.6652450052934823  0.3354306283372092  0.7079765841384105
  0.6685914012746343  0.5002116032387878  0.6478060636438884
  0.6658647019412454  0.3342628521698846  0.8218659834755503
  0.6671835309516697  0.5009854578555309  0.7645696629736224
  0.3329194326573276  0.6656805491339436  0.2354297739539984
  0.3342917448668984  0.8322759465515864  0.1781636288694403
  0.3314277487706677  0.6664433488817099  0.3522371664652517
  0.3346597828016420  0.8313188154892843  0.2919848245648236
  0.3334744547799560  0.6650641685129025  0.4700422699438792
  0.3337790701007525  0.8323095856990363  0.4114229855603799
  0.3338789239708796  0.6656475761554801  0.5886501857048216
  0.3334357762842202  0.8317424967224074  0.5299368681837472
  0.3348371409098752  0.6645940952464452  0.7079755712456319
  0.3315026955270558  0.8331601443317147  0.6477587846029993
  0.3340250875069155  0.6657829633532869  0.8218357673178287
  0.3329583090534441  0.8323224668190530  0.7645333227674352
  0.6670478201016203  0.6676244173069902  0.2354581744602694
  0.6657611827862555  0.8342301123958572  0.1781922238818576
  0.6685445816959051  0.6668820518833943  0.3521909199307039
  0.6651101677146259  0.8354266951260456  0.2920112112655266
  0.6664033389681870  0.6682370917142366  0.4700895571241419
  0.6662834147181479  0.8343122640970458  0.4113587069674688
  0.6662871021301728  0.6677349099950144  0.5886092686843690
  0.6664617755601677  0.8348730444183856  0.5299379030318325
  0.6652146290700668  0.6687841356342928  0.7079834447218203
  0.6686547644439591  0.8335057696678890  0.6478058819982618
  0.6658437563115649  0.6676834987753467  0.8218197964777580
  0.6671340839477664  0.8342943869960252  0.7645294132906411
 
  0.00000000E+00  0.00000000E+00  0.00000000E+00
  0.00000000E+00  0.00000000E+00  0.00000000E+00
  0.00000000E+00  0.00000000E+00  0.00000000E+00
  0.00000000E+00  0.00000000E+00  0.00000000E+00
  0.00000000E+00  0.00000000E+00  0.00000000E+00
  0.00000000E+00  0.00000000E+00  0.00000000E+00
  0.00000000E+00  0.00000000E+00  0.00000000E+00
  0.00000000E+00  0.00000000E+00  0.00000000E+00
  0.00000000E+00  0.00000000E+00  0.00000000E+00
  0.00000000E+00  0.00000000E+00  0.00000000E+00
  0.00000000E+00  0.00000000E+00  0.00000000E+00
  0.00000000E+00  0.00000000E+00  0.00000000E+00
  0.00000000E+00  0.00000000E+00  0.00000000E+00
  0.00000000E+00  0.00000000E+00  0.00000000E+00
  0.00000000E+00  0.00000000E+00  0.00000000E+00
  0.00000000E+00  0.00000000E+00  0.00000000E+00
  0.00000000E+00  0.00000000E+00  0.00000000E+00
  0.00000000E+00  0.00000000E+00  0.00000000E+00
  0.00000000E+00  0.00000000E+00  0.00000000E+00
  0.00000000E+00  0.00000000E+00  0.00000000E+00
  0.00000000E+00  0.00000000E+00  0.00000000E+00
  0.00000000E+00  0.00000000E+00  0.00000000E+00
  0.00000000E+00  0.00000000E+00  0.00000000E+00
  0.00000000E+00  0.00000000E+00  0.00000000E+00
  0.00000000E+00  0.00000000E+00  0.00000000E+00
  0.00000000E+00  0.00000000E+00  0.00000000E+00
  0.00000000E+00  0.00000000E+00  0.00000000E+00
  0.00000000E+00  0.00000000E+00  0.00000000E+00
  0.00000000E+00  0.00000000E+00  0.00000000E+00
  0.00000000E+00  0.00000000E+00  0.00000000E+00
  0.00000000E+00  0.00000000E+00  0.00000000E+00
  0.00000000E+00  0.00000000E+00  0.00000000E+00
  0.00000000E+00  0.00000000E+00  0.00000000E+00
  0.00000000E+00  0.00000000E+00  0.00000000E+00
  0.00000000E+00  0.00000000E+00  0.00000000E+00
  0.00000000E+00  0.00000000E+00  0.00000000E+00
  0.00000000E+00  0.00000000E+00  0.00000000E+00
  0.00000000E+00  0.00000000E+00  0.00000000E+00
  0.00000000E+00  0.00000000E+00  0.00000000E+00
  0.00000000E+00  0.00000000E+00  0.00000000E+00
  0.00000000E+00  0.00000000E+00  0.00000000E+00
  0.00000000E+00  0.00000000E+00  0.00000000E+00
  0.00000000E+00  0.00000000E+00  0.00000000E+00
  0.00000000E+00  0.00000000E+00  0.00000000E+00
  0.00000000E+00  0.00000000E+00  0.00000000E+00
  0.00000000E+00  0.00000000E+00  0.00000000E+00
  0.00000000E+00  0.00000000E+00  0.00000000E+00
  0.00000000E+00  0.00000000E+00  0.00000000E+00
  0.00000000E+00  0.00000000E+00  0.00000000E+00
  0.00000000E+00  0.00000000E+00  0.00000000E+00
  0.00000000E+00  0.00000000E+00  0.00000000E+00
  0.00000000E+00  0.00000000E+00  0.00000000E+00
  0.00000000E+00  0.00000000E+00  0.00000000E+00
  0.00000000E+00  0.00000000E+00  0.00000000E+00
  0.00000000E+00  0.00000000E+00  0.00000000E+00
  0.00000000E+00  0.00000000E+00  0.00000000E+00
  0.00000000E+00  0.00000000E+00  0.00000000E+00
  0.00000000E+00  0.00000000E+00  0.00000000E+00
  0.00000000E+00  0.00000000E+00  0.00000000E+00
  0.00000000E+00  0.00000000E+00  0.00000000E+00
  0.00000000E+00  0.00000000E+00  0.00000000E+00
  0.00000000E+00  0.00000000E+00  0.00000000E+00
  0.00000000E+00  0.00000000E+00  0.00000000E+00
  0.00000000E+00  0.00000000E+00  0.00000000E+00
  0.00000000E+00  0.00000000E+00  0.00000000E+00
  0.00000000E+00  0.00000000E+00  0.00000000E+00
  0.00000000E+00  0.00000000E+00  0.00000000E+00
  0.00000000E+00  0.00000000E+00  0.00000000E+00
  0.00000000E+00  0.00000000E+00  0.00000000E+00
  0.00000000E+00  0.00000000E+00  0.00000000E+00
  0.00000000E+00  0.00000000E+00  0.00000000E+00
  0.00000000E+00  0.00000000E+00  0.00000000E+00
  0.00000000E+00  0.00000000E+00  0.00000000E+00
  0.00000000E+00  0.00000000E+00  0.00000000E+00
  0.00000000E+00  0.00000000E+00  0.00000000E+00
  0.00000000E+00  0.00000000E+00  0.00000000E+00
  0.00000000E+00  0.00000000E+00  0.00000000E+00
  0.00000000E+00  0.00000000E+00  0.00000000E+00
  0.00000000E+00  0.00000000E+00  0.00000000E+00
  0.00000000E+00  0.00000000E+00  0.00000000E+00
  0.00000000E+00  0.00000000E+00  0.00000000E+00
  0.00000000E+00  0.00000000E+00  0.00000000E+00
  0.00000000E+00  0.00000000E+00  0.00000000E+00
  0.00000000E+00  0.00000000E+00  0.00000000E+00
  0.00000000E+00  0.00000000E+00  0.00000000E+00
  0.00000000E+00  0.00000000E+00  0.00000000E+00
  0.00000000E+00  0.00000000E+00  0.00000000E+00
  0.00000000E+00  0.00000000E+00  0.00000000E+00
  0.00000000E+00  0.00000000E+00  0.00000000E+00
  0.00000000E+00  0.00000000E+00  0.00000000E+00
  0.00000000E+00  0.00000000E+00  0.00000000E+00
  0.00000000E+00  0.00000000E+00  0.00000000E+00
  0.00000000E+00  0.00000000E+00  0.00000000E+00
  0.00000000E+00  0.00000000E+00  0.00000000E+00
  0.00000000E+00  0.00000000E+00  0.00000000E+00
  0.00000000E+00  0.00000000E+00  0.00000000E+00
  0.00000000E+00  0.00000000E+00  0.00000000E+00
  0.00000000E+00  0.00000000E+00  0.00000000E+00
  0.00000000E+00  0.00000000E+00  0.00000000E+00
  0.00000000E+00  0.00000000E+00  0.00000000E+00
  0.00000000E+00  0.00000000E+00  0.00000000E+00
  0.00000000E+00  0.00000000E+00  0.00000000E+00
  0.00000000E+00  0.00000000E+00  0.00000000E+00
  0.00000000E+00  0.00000000E+00  0.00000000E+00
  0.00000000E+00  0.00000000E+00  0.00000000E+00
  0.00000000E+00  0.00000000E+00  0.00000000E+00
  0.00000000E+00  0.00000000E+00  0.00000000E+00
  0.00000000E+00  0.00000000E+00  0.00000000E+00
