Na 
 1.0000000000000000
    -8.8998977204543976    8.8998977204543976    0.0000000000000000
   -17.7997954409087953   -0.0000000000000006    0.0000000000000000
     0.0000000000000000    0.0000000000000000   35.0749865295452068
 Na 
 108
Cartesian
 -0.0000005933265147 -0.0000000000000000  8.0977264295452045
 -2.9666325734847994 -0.0000000000000001  6.0000000000000000
 -0.0000005933265147 -0.0000000000000000 12.2931784495452092
 -2.9666325734847994 -0.0000000000000001 10.1954520200000012
 -0.0000005933265147 -0.0000000000000000 16.4886304695452033
 -2.9666325734847994 -0.0000000000000001 14.3909040400000023
 -0.0000005933265147 -0.0000000000000000 20.6840824895452045
 -2.9666325734847994 -0.0000000000000001 18.5863560600000035
 -0.0000005933265147 -0.0000000000000000 24.8795345095452163
 -2.9666325734847994 -0.0000000000000001 22.7818080800000011
 -0.0000005933265147 -0.0000000000000000 29.0749865295452068
 -2.9666325734847994 -0.0000000000000001 26.9772601000000165
 -2.9666331668113139  2.9666325734847994  8.0977264295452045
 -5.9332651469695978  2.9666325734847989  6.0000000000000000
 -2.9666331668113139  2.9666325734847994 12.2931784495452092
 -5.9332651469695978  2.9666325734847989 10.1954520200000012
 -2.9666331668113139  2.9666325734847994 16.4886304695452033
 -5.9332651469695978  2.9666325734847989 14.3909040400000023
 -2.9666331668113139  2.9666325734847994 20.6840824895452045
 -5.9332651469695978  2.9666325734847989 18.5863560600000035
 -2.9666331668113139  2.9666325734847994 24.8795345095452163
 -5.9332651469695978  2.9666325734847989 22.7818080800000011
 -2.9666331668113139  2.9666325734847994 29.0749865295452068
 -5.9332651469695978  2.9666325734847989 26.9772601000000165
 -14.8331634607505087  8.8998977204543941  8.0977264295452045
 -8.8998977204543976 -0.0000000000000003  6.0000000000000000
 -14.8331634607505087  8.8998977204543941 12.2931784495452092
 -8.8998977204543976 -0.0000000000000003 10.1954520200000012
 -14.8331634607505087  8.8998977204543941 16.4886304695452033
 -8.8998977204543976 -0.0000000000000003 14.3909040400000023
 -14.8331634607505087  8.8998977204543941 20.6840824895452045
 -8.8998977204543976 -0.0000000000000003 18.5863560600000035
 -14.8331634607505087  8.8998977204543941 24.8795345095452163
 -8.8998977204543976 -0.0000000000000003 22.7818080800000011
 -14.8331634607505087  8.8998977204543941 29.0749865295452068
 -8.8998977204543976 -0.0000000000000003 26.9772601000000165
 -5.9332657402961129  5.9332651469695987  8.0977264295452045
 -8.8998977204543976  5.9332651469695987  6.0000000000000000
 -5.9332657402961129  5.9332651469695987 12.2931784495452092
 -8.8998977204543976  5.9332651469695987 10.1954520200000012
 -5.9332657402961129  5.9332651469695987 16.4886304695452033
 -8.8998977204543976  5.9332651469695987 14.3909040400000023
 -5.9332657402961129  5.9332651469695987 20.6840824895452045
 -8.8998977204543976  5.9332651469695987 18.5863560600000035
 -5.9332657402961129  5.9332651469695987 24.8795345095452163
 -8.8998977204543976  5.9332651469695987 22.7818080800000011
 -5.9332657402961129  5.9332651469695987 29.0749865295452068
 -8.8998977204543976  5.9332651469695987 26.9772601000000165
 -8.8998983137809127  2.9666325734847985  8.0977264295452045
 -11.8665302939391974  2.9666325734847994  6.0000000000000000
 -8.8998983137809127  2.9666325734847985 12.2931784495452092
 -11.8665302939391974  2.9666325734847994 10.1954520200000012
 -8.8998983137809127  2.9666325734847985 16.4886304695452033
 -11.8665302939391974  2.9666325734847994 14.3909040400000023
 -8.8998983137809127  2.9666325734847985 20.6840824895452045
 -11.8665302939391974  2.9666325734847994 18.5863560600000035
 -8.8998983137809127  2.9666325734847985 24.8795345095452163
 -11.8665302939391974  2.9666325734847994 22.7818080800000011
 -8.8998983137809127  2.9666325734847985 29.0749865295452068
 -11.8665302939391974  2.9666325734847994 26.9772601000000165
 -11.8665308872657125 -0.0000000000000004  8.0977264295452045
 -14.8331628674239973 -0.0000000000000003  6.0000000000000000
 -11.8665308872657125 -0.0000000000000004 12.2931784495452092
 -14.8331628674239973 -0.0000000000000003 10.1954520200000012
 -11.8665308872657125 -0.0000000000000004 16.4886304695452033
 -14.8331628674239973 -0.0000000000000003 14.3909040400000023
 -11.8665308872657125 -0.0000000000000004 20.6840824895452045
 -14.8331628674239973 -0.0000000000000003 18.5863560600000035
 -11.8665308872657125 -0.0000000000000004 24.8795345095452163
 -14.8331628674239973 -0.0000000000000003 22.7818080800000011
 -11.8665308872657125 -0.0000000000000004 29.0749865295452068
 -14.8331628674239973 -0.0000000000000003 26.9772601000000165
 -11.8665308872657125  5.9332651469695969  8.0977264295452045
 -14.8331628674239955  5.9332651469695978  6.0000000000000000
 -11.8665308872657125  5.9332651469695969 12.2931784495452092
 -14.8331628674239955  5.9332651469695978 10.1954520200000012
 -11.8665308872657125  5.9332651469695969 16.4886304695452033
 -14.8331628674239955  5.9332651469695978 14.3909040400000023
 -11.8665308872657125  5.9332651469695969 20.6840824895452045
 -14.8331628674239955  5.9332651469695978 18.5863560600000035
 -11.8665308872657125  5.9332651469695969 24.8795345095452163
 -14.8331628674239955  5.9332651469695978 22.7818080800000011
 -11.8665308872657125  5.9332651469695969 29.0749865295452068
 -14.8331628674239955  5.9332651469695978 26.9772601000000165
 -14.8331634607505105  2.9666325734847980  8.0977264295452045
 -17.7997954409087953  2.9666325734847985  6.0000000000000000
 -14.8331634607505105  2.9666325734847980 12.2931784495452092
 -17.7997954409087953  2.9666325734847985 10.1954520200000012
 -14.8331634607505105  2.9666325734847980 16.4886304695452033
 -17.7997954409087953  2.9666325734847985 14.3909040400000023
 -14.8331634607505105  2.9666325734847980 20.6840824895452045
 -17.7997954409087953  2.9666325734847985 18.5863560600000035
 -14.8331634607505105  2.9666325734847980 24.8795345095452163
 -17.7997954409087953  2.9666325734847985 22.7818080800000011
 -14.8331634607505105  2.9666325734847980 29.0749865295452068
 -17.7997954409087953  2.9666325734847985 26.9772601000000165
 -17.7997960342353103  5.9332651469695978  8.0977264295452045
 -20.7664280143935933  5.9332651469695969  6.0000000000000000
 -17.7997960342353103  5.9332651469695978 12.2931784495452092
 -20.7664280143935933  5.9332651469695969 10.1954520200000012
 -17.7997960342353103  5.9332651469695978 16.4886304695452033
 -20.7664280143935933  5.9332651469695969 14.3909040400000023
 -17.7997960342353103  5.9332651469695978 20.6840824895452045
 -20.7664280143935933  5.9332651469695969 18.5863560600000035
 -17.7997960342353103  5.9332651469695978 24.8795345095452163
 -20.7664280143935933  5.9332651469695969 22.7818080800000011
 -17.7997960342353103  5.9332651469695978 29.0749865295452068
 -20.7664280143935933  5.9332651469695969 26.9772601000000165
