Na  O Cl                                
   1.00000000000000     
     0.0000000000000000    4.4573784449999998    0.0000000000000000
     4.4573784449999998    0.0000000000000000    0.0000000000000000
     0.0000000000000000    0.0000000000000000  -27.6008242257378456
   Na   O    Cl
    12     4     4
Direct
  0.0000001000000012  0.5000001744298856  0.2173848125305256
  0.5000001744298856  0.0000001000000012  0.2173848125305256
  0.5000001744298856  0.5000001744298856  0.2981319986475128
  0.0000001000000012  0.5000001744298856  0.3788792088045128
  0.5000001744298856  0.0000001000000012  0.3788792088045128
  0.5000001744298856  0.5000001744298856  0.4596263949215000
  0.0000001000000012  0.5000001744298856  0.5403736050785000
  0.5000001744298856  0.0000001000000012  0.5403736050785000
  0.5000001744298856  0.5000001744298856  0.6211207911954872
  0.0000001000000012  0.5000001744298856  0.7018680013524872
  0.5000001744298856  0.0000001000000012  0.7018680013524872
  0.5000001744298856  0.5000001744298856  0.7826151874694744
  0.5000001744298856  0.5000001744298856  0.2173848125305256
  0.5000001744298856  0.5000001744298856  0.3788792088045128
  0.5000001744298856  0.5000001744298856  0.5403736050785000
  0.5000001744298856  0.5000001744298856  0.7018680013524872
  0.0000001000000012  0.0000001000000012  0.2981319986475128
  0.0000001000000012  0.0000001000000012  0.4596263949215000
  0.0000001000000012  0.0000001000000012  0.6211207911954872
  0.0000001000000012  0.0000001000000012  0.7826151874694744
 
  0.00000000E+00  0.00000000E+00  0.00000000E+00
  0.00000000E+00  0.00000000E+00  0.00000000E+00
  0.00000000E+00  0.00000000E+00  0.00000000E+00
  0.00000000E+00  0.00000000E+00  0.00000000E+00
  0.00000000E+00  0.00000000E+00  0.00000000E+00
  0.00000000E+00  0.00000000E+00  0.00000000E+00
  0.00000000E+00  0.00000000E+00  0.00000000E+00
  0.00000000E+00  0.00000000E+00  0.00000000E+00
  0.00000000E+00  0.00000000E+00  0.00000000E+00
  0.00000000E+00  0.00000000E+00  0.00000000E+00
  0.00000000E+00  0.00000000E+00  0.00000000E+00
  0.00000000E+00  0.00000000E+00  0.00000000E+00
  0.00000000E+00  0.00000000E+00  0.00000000E+00
  0.00000000E+00  0.00000000E+00  0.00000000E+00
  0.00000000E+00  0.00000000E+00  0.00000000E+00
  0.00000000E+00  0.00000000E+00  0.00000000E+00
  0.00000000E+00  0.00000000E+00  0.00000000E+00
  0.00000000E+00  0.00000000E+00  0.00000000E+00
  0.00000000E+00  0.00000000E+00  0.00000000E+00
  0.00000000E+00  0.00000000E+00  0.00000000E+00
