Na                                      
   1.00000000000000     
     5.7310940451428385    1.5356420211428399    0.0000000000000000
     1.5356420211428405    5.7310940451428394    0.0000000000000000
   -15.6333494909077988  -15.6333494909077988   15.6333494909077988
   Na
     6
Direct
  0.5000009505531153  0.5000009505531153  0.3837949125035252
  0.0000001000000012  0.0000001000000012  0.4612649708345060
  0.5000009505531153  0.5000009505531153  0.4612649708345060
  0.0000001000000012  0.0000001000000012  0.5387350291654940
  0.5000009505531153  0.5000009505531153  0.5387350291654940
  0.0000001000000012  0.0000001000000012  0.6162050874964748
 
  0.00000000E+00  0.00000000E+00  0.00000000E+00
  0.00000000E+00  0.00000000E+00  0.00000000E+00
  0.00000000E+00  0.00000000E+00  0.00000000E+00
  0.00000000E+00  0.00000000E+00  0.00000000E+00
  0.00000000E+00  0.00000000E+00  0.00000000E+00
  0.00000000E+00  0.00000000E+00  0.00000000E+00
