Na 
 1.0000000000000000
     5.7310940451428385    1.5356420211428399    0.0000000000000000
     1.5356420211428405    5.7310940451428394    0.0000000000000000
   -15.6333494909077988  -15.6333494909077988   15.6333494909077988
 Na 
   6
Cartesian
 -2.3666250594385398 -2.3666250594385398  6.0000000000000009
 -7.2111157702956605 -7.2111157702956596  7.2111164969692672
 -3.5777415564078066 -3.5777415564078066  7.2111164969692672
 -8.4222322672649277 -8.4222322672649277  8.4222329939385325
 -4.7888580533770728 -4.7888580533770728  8.4222329939385343
 -9.6333487642341940 -9.6333487642341922  9.6333494909078006
