Na                                      
   1.00000000000000     
    -2.9666325763132253   -2.9666325763132253    0.0000000000000000
     4.1954520239999988   -4.1954520239999988    0.0000000000000000
    18.9739150026933636  -18.9739150026933636   26.8331679281232951
   Na
    12
Direct
  0.0000001000000012  0.0000001000000012  0.2236038628041186
  0.5000009505531153  0.4999990494468847  0.2236040508757355
  0.0000001000000012  0.0000001000000012  0.3341622800681492
  0.5000009505531153  0.4999990494468847  0.3341624681397590
  0.0000001000000012  0.0000001000000012  0.4447206973321798
  0.5000009505531153  0.4999990494468847  0.4447208854037896
  0.0000001000000012  0.0000001000000012  0.5552791145962104
  0.5000009505531153  0.4999990494468847  0.5552793026678202
  0.0000001000000012  0.0000001000000012  0.6658375318602410
  0.5000009505531153  0.4999990494468847  0.6658377199318508
  0.0000001000000012  0.0000001000000012  0.7763959491242645
  0.5000009505531153  0.4999990494468847  0.7763961371958814
 
  0.00000000E+00  0.00000000E+00  0.00000000E+00
  0.00000000E+00  0.00000000E+00  0.00000000E+00
  0.00000000E+00  0.00000000E+00  0.00000000E+00
  0.00000000E+00  0.00000000E+00  0.00000000E+00
  0.00000000E+00  0.00000000E+00  0.00000000E+00
  0.00000000E+00  0.00000000E+00  0.00000000E+00
  0.00000000E+00  0.00000000E+00  0.00000000E+00
  0.00000000E+00  0.00000000E+00  0.00000000E+00
  0.00000000E+00  0.00000000E+00  0.00000000E+00
  0.00000000E+00  0.00000000E+00  0.00000000E+00
  0.00000000E+00  0.00000000E+00  0.00000000E+00
  0.00000000E+00  0.00000000E+00  0.00000000E+00
