Na 
 1.0000000000000000
    -2.9666325763132253   -2.9666325763132253    0.0000000000000000
     4.1954520239999988   -4.1954520239999988    0.0000000000000000
    18.9739150026933636  -18.9739150026933636   26.8331679281232951
 Na 
  12
Cartesian
  4.2426408100012294 -4.2426414033277444  6.0000000000000000
  4.8570471714756245 -7.8236853876725370  6.0000050465571704
  6.3403668220012275 -6.3403674153277425  8.9666325763132235
  6.9547731834756243 -9.9214113996725359  8.9666376228703957
  8.4380928340012282 -8.4380934273277433 11.9332651526264506
  9.0524991954756224 -12.0191374116725349 11.9332701991836210
 10.5358188460012236 -10.5358194393277387 14.8998977289396706
 11.1502252074756214 -14.1168634236725339 14.8999027754968463
 12.6335448580012262 -12.6335454513277412 17.8665303052529012
 13.2479512194756239 -16.2145894356725364 17.8665353518100716
 14.7312708700012251 -14.7312714633277437 20.8331628815661247
 15.3456772314756194 -18.3123154476725283 20.8331679281232951
