Na 
 1.0000000000000000
     4.1954520239999997    0.0000000000000000    0.0000000000000000
     0.0000000000000000    4.1954520239999997    0.0000000000000000
     0.0000000000000000    0.0000000000000000   35.0749825635452055
 Na 
  12
Cartesian
  0.0000004195452024  0.0000004195452024  8.0977224435452069
  2.0977299999999999  2.0977299999999999  6.0000000000000027
  0.0000004195452024  0.0000004195452024 12.2931744675452066
  2.0977299999999999  2.0977299999999999 10.1954520240000015
  0.0000004195452024  0.0000004195452024 16.4886264915452045
  2.0977299999999999  2.0977299999999999 14.3909040480000030
  0.0000004195452024  0.0000004195452024 20.6840785155452060
  2.0977299999999999  2.0977299999999999 18.5863560720000009
  0.0000004195452024  0.0000004195452024 24.8795305395452040
  2.0977299999999999  2.0977299999999999 22.7818080959999989
  0.0000004195452024  0.0000004195452024 29.0749825635452019
  2.0977299999999999  2.0977299999999999 26.9772601199999968
