Li  P  S                                
   1.00000000000000     
     7.7727815893702195    0.0000000000000000    0.0000000000000000
     0.0000000000000000    6.6181108029124518    0.0000000000000000
     0.0000000000000000    0.0000000000000000    6.2259361675572196
   Li   P    S 
     6     2     8
Direct
  0.7436666174151407  0.6828304163572710  0.4999486526485582
  0.2563333825848591  0.6828304163572710  0.4999486526485582
  0.7563333825848593  0.3171695836427292 -0.0000513473514421
  0.2436666174151408  0.3171695836427292 -0.0000513473514421
  0.5000000000000000  0.8565447162467310  0.9921372631516083
  0.0000000000000000  0.1434552837532690  0.4921372631516087
  0.5000000000000000  0.1810677886064577  0.5006088716808971
  0.0000000000000000  0.8189322113935424  0.0006088716808973
  0.7179157702076044  0.3260555806667904  0.3911904651734928
  0.2820842297923954  0.3260555806667904  0.3911904651734928
  0.7820842297923956  0.6739444193332097  0.8911904651734930
  0.2179157702076046  0.6739444193332097  0.8911904651734930
  0.5000000000000000  0.8871273966921527  0.3915529778917779
  0.0000000000000000  0.1128726033078473  0.8915529778917780
  0.5000000000000000  0.1912066017493121  0.8318226516316043
  0.0000000000000000  0.8087933982506881  0.3318226516316041
 
  0.00000000E+00  0.00000000E+00  0.00000000E+00
  0.00000000E+00  0.00000000E+00  0.00000000E+00
  0.00000000E+00  0.00000000E+00  0.00000000E+00
  0.00000000E+00  0.00000000E+00  0.00000000E+00
  0.00000000E+00  0.00000000E+00  0.00000000E+00
  0.00000000E+00  0.00000000E+00  0.00000000E+00
  0.00000000E+00  0.00000000E+00  0.00000000E+00
  0.00000000E+00  0.00000000E+00  0.00000000E+00
  0.00000000E+00  0.00000000E+00  0.00000000E+00
  0.00000000E+00  0.00000000E+00  0.00000000E+00
  0.00000000E+00  0.00000000E+00  0.00000000E+00
  0.00000000E+00  0.00000000E+00  0.00000000E+00
  0.00000000E+00  0.00000000E+00  0.00000000E+00
  0.00000000E+00  0.00000000E+00  0.00000000E+00
  0.00000000E+00  0.00000000E+00  0.00000000E+00
  0.00000000E+00  0.00000000E+00  0.00000000E+00
