Li  P  S 
 1.0000000000000000
     7.7082899999999999    0.0000000000000000    0.0000000000000000
     0.0000000000000000    6.5352100000000002    0.0000000000000000
     0.0000000000000000    0.0000000000000000    6.1364999999999998
 Li  P   S  
   6   2   8
Cartesian
  5.7827591579999993  4.3727090110000004  3.1780933500000002
  1.9255308420000001  4.3727090110000004  3.1780933500000002
  5.7796758420000005  2.1625009890000002  0.1098433500000000
  1.9286141579999998  2.1625009890000002  0.1098433500000000
  3.8541449999999999  5.5876045500000000  6.0505889999999996
  0.0000000000000000  0.9476054500000000  2.9823389999999996
  3.8541449999999999  1.1645744220000003  3.0326582999999996
  0.0000000000000000  5.3706355779999999  6.1009082999999995
  5.5384063650000002  2.1455094429999995  2.3668480499999993
  2.1698836349999997  2.1455094429999995  2.3668480499999993
  6.0240286349999996  4.3897005570000003  5.4350980499999997
  1.6842613650000002  4.3897005570000003  5.4350980499999997
  3.8541449999999999  5.8274467570000006  2.3809619999999994
  0.0000000000000000  0.7077632429999999  5.4492120000000002
  3.8541449999999999  1.2750194709999996  5.0503394999999998
  0.0000000000000000  5.2601905290000008  1.9820895000000001
