Na 
 1.0000000000000000
     4.1726219999999996    0.0000000000000000    0.0000000000000000
     0.0000000000000000    4.1726219999999996    0.0000000000000000
     0.0000000000000000    0.0000000000000000    4.1726219999999996
 Na 
   2
Cartesian
  0.0000000000000000  0.0000000000000000  0.0000000000000000
  2.0863109999999998  2.0863109999999998  2.0863109999999998
