Cl Na  O                                
   1.00000000000000     
    -8.9460655139706660    8.8769634496307575   -0.0248449415720845
   -17.8935331717537345   -0.0014642522921209   -0.0386866242664289
     0.0940992760976142   -0.0266704516182439   43.1538081825246920
   Cl   Na   O 
    32   204    32
Direct
  0.1511898101713323  0.0484954746732635  0.0779451833490707
  0.1505116319393947  0.0568738758286901  0.1849805198131081
  0.1522510961937463  0.0543848537966246  0.2900111690582327
  0.1542466449109061  0.0515824625142653  0.3915740686024651
  0.1620746695055594  0.2924013079822543  0.0824624482532172
  0.1505485664833053  0.3070251340768990  0.1853056407538274
  0.1527560209759244  0.3035475060362735  0.2903564410116117
  0.1515880138361187  0.3036880464500410  0.3914578148107397
  0.1547155519760222  0.5549471323014820  0.0823041137522594
  0.1513861835310734  0.5563735881382730  0.1852725787502920
  0.1520959466107732  0.5551227462050402  0.2894448789219644
  0.1511970861299893  0.5539734873583909  0.3923388368261464
  0.1516605966685814  0.8036529612901447  0.0766843042624743
  0.1483725471974049  0.8075355099996763  0.1852652662591283
  0.1530135446851267  0.8026333168289377  0.2909878887977259
  0.1553271211203566  0.8195194472337322  0.3954682064370341
  0.6515843089180626  0.0472245714073048  0.0819355179599380
  0.6497863457480249  0.0540041093998350  0.1847782325999639
  0.6507338870351066  0.0503702494486718  0.2879327063832578
  0.6703819872047545  0.0304237969919496  0.3939318687005221
  0.6566582147746728  0.2955574961108909  0.0807112268074904
  0.6496108013306919  0.3034922813695128  0.1850963474942794
  0.6537597284814393  0.2990295683151611  0.2882448174276895
  0.6622329487390021  0.2987901994683018  0.3917503984699356
  0.6413182874503940  0.5482758676404353  0.0838226048220763
  0.6502961115944529  0.5528817825625042  0.1854807288027651
  0.6526041629101812  0.5494831354209528  0.2878413215670745
  0.6400769842913234  0.5481986813755184  0.3926696845988443
  0.6435494039459213  0.8045872478167713  0.0821943402046985
  0.6522336327899008  0.8035279471496363  0.1856494615773895
  0.6503180223639529  0.8003407397578353  0.2879985580993518
  0.6450499760296695  0.8052772473698780  0.3910807173727123
  0.3669766805758356  0.0647916986914256  0.0814908762820970
  0.1546119159319677  0.1720090845086205  0.0204134409247786
  0.4291912618669410  0.0301179575053325  0.1855104763286332
  0.1519584367947100  0.1878145955906187  0.1405287259527415
  0.3788799931175826  0.0694994276257705  0.2897183371518979
  0.1516395883014811  0.1891661162423786  0.2318323321942026
  0.4228759868938196  0.0433779577080172  0.3934980466511969
  0.1525719349091743  0.1609313297252416  0.3458657205351663
  0.3947624153675156  0.1796199704661345  0.0348691653212183
  0.4476137176096747  0.2733076972193944  0.0827136470143149
  0.1436023828464749  0.4303564150968873  0.0432912378934332
  0.4218399009439904  0.1656130886153538  0.1352656648488307
  0.3732618151676839  0.3208300295389317  0.1858252093013514
  0.1499008599465883  0.4149247878205438  0.1280393271483934
  0.4269488410102057  0.1649455318191453  0.2351265987159303
  0.4372933459962207  0.2785641423992337  0.2898522150382720
  0.1520746940179390  0.4151767472999799  0.2441427124014647
  0.3684464294184926  0.1948421195881108  0.3425983996163414
  0.3628075028298553  0.3287366372202996  0.3933506402778569
  0.1522306950930108  0.4420456869175784  0.3347778392847196
  0.4018656254169924  0.4235037111260613  0.0384296372691169
  0.3705200984979387  0.5785049603493921  0.0818230844123276
  0.1532718629592248  0.6685502752699258  0.0222904178094396
  0.3775415141004066  0.4390263145024865  0.1318919628692201
  0.4302895834160449  0.5303980125785035  0.1856695115121394
  0.1514631772676567  0.6855730225440032  0.1410791659876564
  0.3765168378326068  0.4406750024680520  0.2407854530680477
  0.3810070593309674  0.5732602504650259  0.2897094244021405
  0.1513331234976458  0.6895802668184106  0.2324703435659990
  0.4390887252943537  0.4086588430845365  0.3378988819307644
  0.4219837576306952  0.5288451141515715  0.3932911466050750
  0.1526232421594487  0.6586514119752458  0.3432792394793796
  0.4057528759309516  0.6699277249907115  0.0240852255909562
  0.4328936404584584  0.7809996360072136  0.0794118606936843
  0.1527369543803123  0.9231874486406465  0.0307053455686226
  0.4288871153607695  0.6629352245098838  0.1361507084579337
  0.3630353423674128  0.8257667577114137  0.1853688673874917
  0.1511618875505263  0.9117664236050713  0.1254190012840439
  0.4274275328306028  0.6649242528418559  0.2344938017882508
  0.4269817310798064  0.7814357528928092  0.2900697373309027
  0.1505577217943327  0.9137296028070716  0.2440958582172885
  0.3734291856678633  0.6915935716427872  0.3472931696564842
  0.3818042597573417  0.8252265164131670  0.3935666286865158
  0.1524317241531530  0.9400968463306558  0.3382556926389494
  0.4083917167245968  0.9222441190329514  0.0267232767719395
  0.3775740181009276  0.9371151322236847  0.1312234516839124
  0.3756235372459516  0.9401486532470790  0.2407085830874092
  0.4300414566165353  0.9140709254513255  0.3393368512015304
  0.8711185280572108  0.0586554332398046  0.0785981544273951
  0.6392628436483757  0.1819074618265346  0.0165076185151271
  0.9347634046268326  0.0422728906609282  0.1849937500711923
  0.6535002389888189  0.1878694728093932  0.1399711340914339
  0.8745353009016934  0.0576510453677050  0.2904445565785567
  0.6523286280745360  0.1913531933107869  0.2323485695621852
  0.9290562429216318  0.0512674925270591  0.3943130083869578
  0.6523415776079862  0.1622049769584007  0.3504687549582374
  0.8991555717757679  0.1769459259758993  0.0284781749477821
  0.9371667006175547  0.2914117875892260  0.0808319813089539
  0.6549013233195796  0.4257353465715468  0.0388593451300263
  0.9276648497974908  0.1625732241614092  0.1285302826292940
  0.8772029288286128  0.3012602932074171  0.1853224430352036
  0.6523844033752064  0.4152408429281053  0.1272661381196721
  0.9273639016889492  0.1639849467883783  0.2414777300687010
  0.9257338339764585  0.2964492999039097  0.2894991673636325
  0.6521976950715469  0.4165100089646312  0.2433335282050840
  0.8749233951411004  0.1916812196339589  0.3398809588688319
  0.8860478924019255  0.3145308745783438  0.3932941982223154
  0.6521144595362457  0.4441700705801907  0.3387471976787394
  0.9161827044848344  0.4227056253824836  0.0252630028937457
  0.8431999194963653  0.5684592094552636  0.0843009216820044
  0.6656521919880124  0.6691071546436798  0.0177647011491881
  0.8791034357897313  0.4365936111926901  0.1384568345481312
  0.9341889559335785  0.5431677340437373  0.1862651264189515
  0.6482007430578572  0.6895178976651385  0.1420623041214319
  0.8767339618781710  0.4395876787492219  0.2342983826413752
  0.8682159535459718  0.5614749511222314  0.2894801329977539
  0.6503618907010165  0.6918079782746530  0.2322910958750631
  0.9359026142761214  0.4113532719980290  0.3424882383546978
  0.9318066512377503  0.5446542710450291  0.3931060500145443
  0.6523467951468471  0.6630719138916427  0.3485527259911160
  0.9021959231108309  0.6710188576037330  0.0377315022017200
  0.9372452889889136  0.7942207257804562  0.0814409753983882
  0.6531015015078077  0.9235005051594846  0.0393662680738777
  0.9211154454372541  0.6665644738263711  0.1305718556095208
  0.8753514657425457  0.8068582065801108  0.1855648669880121
  0.6508932872487480  0.9169945135714567  0.1274903396399417
  0.9244678060015882  0.6668217696985228  0.2414988935939747
  0.9221328623344841  0.8049352533070254  0.2897358277233356
  0.6509576868775281  0.9169702708138232  0.2433867284021116
  0.8685864331245262  0.6941271839659323  0.3368089021743836
  0.8832143818715567  0.7959112203190000  0.3929613472286564
  0.6528469515644508  0.9444598081946401  0.3388953161187256
  0.9002808267638981  0.9219971224879506  0.0221125669543620
  0.8755433467151209  0.9399540669965959  0.1365185520913858
  0.8745187765767970  0.9416928577407717  0.2337232042236094
  0.9325836341582734  0.9119191875644892  0.3479823316175933
  0.1672187970717941  0.0664681029707651  0.4899528737957510
  0.1624854241763861  0.2727622983456207  0.4546081896224909
  0.1683104326727656  0.0636485735978374  0.5957696404402327
  0.1690944993776411  0.2261977500575740  0.5487332993242809
  0.1671984378557635  0.0676338465324204  0.6899436113742432
  0.1715187496521109  0.2289103415481842  0.6431962632481618
  0.1672555566354955  0.0735329309455604  0.7835660477048683
  0.1718083526756821  0.2337442704752671  0.7353219130025365
  0.1677797386719416  0.0854012301840151  0.8711640581912384
  0.1660380480148816  0.2502971947808492  0.8278970124154750
  0.1663949617042654  0.0725907670947076  0.9476127416211905
  0.1662030780162680  0.2670284945456685  0.9323811575405460
  0.4790968610862688  0.0641864769074816  0.5026432439672024
  0.5015278735506418  0.2333091487291104  0.4700515722260925
  0.5033792623504988  0.0650649265514545  0.5963060383078864
  0.5202695290626494  0.2262986518724401  0.5512154796563163
  0.5065513925458529  0.0659308518031733  0.6888262035316445
  0.5098408663683507  0.2320321261635064  0.6428616066383159
  0.4986399345399767  0.0710906088645775  0.7827830580173415
  0.5084317629022848  0.2322587518923424  0.7363428161883091
  0.4692135433048189  0.0781567682133558  0.8806707765999832
  0.4984866204639794  0.2389113832248418  0.8317212727785341
  0.4557283289477197  0.0470362754472180  0.9774770656677413
  0.5320015896441110  0.2223685832919902  0.9208352741036542
  0.1753455301868931  0.3991046234361412  0.5120033098694113
  0.1589605394966276  0.5536386747018639  0.4570507889124671
  0.1760102198145704  0.3914782693317212  0.5977898326176114
  0.1661751593800916  0.5667865360566575  0.5538816790894291
  0.1763407775283594  0.3968978091811597  0.6877912637651182
  0.1699190225044077  0.5692287847270516  0.6428991596752864
  0.1772484590953594  0.3990037969840535  0.7799302339348755
  0.1692452734775420  0.5692354560619394  0.7349714828653799
  0.1701633345310681  0.4079446398794528  0.8800742387925006
  0.1659349005828891  0.5656469384735544  0.8267124846644043
  0.3083623471194749  0.3491623162049599  0.9810947150921782
  0.1636921143841108  0.5648507580963527  0.9289791848944473
  0.8572735362559706  0.0673063048266122  0.5029543476763692
  0.7574083565457937  0.2639246344365183  0.4547983102950511
  0.8482526267617952  0.0653339893816079  0.5982819099167059
  0.8391236261265123  0.2302242357393567  0.5476432809336896
  0.8402566141628731  0.0674177234662609  0.6901868652351052
  0.8385561255562076  0.2335119982693817  0.6435522364236421
  0.8402262114220994  0.0687882388137463  0.7836621949037882
  0.8349290199324507  0.2361979215327709  0.7372540215766722
  0.8489370916442893  0.0658481192026993  0.8709307467626928
  0.8177373012549767  0.2526451675912779  0.8302938866322863
  0.9198587803611890  0.0429341596987892  0.9716755273029175
  0.7965720244261222  0.2454060614227176  0.9181834325377889
  0.4797550778740823  0.4239451201357461  0.5062223767870225
  0.5539978830499011  0.5690059803909935  0.4558986960277311
  0.5093367192438215  0.4021812005637276  0.5960441642201966
  0.5110497885342089  0.5735123314381757  0.5469862557303544
  0.5052873526894105  0.4005844947881484  0.6891133873655402
  0.5016332742049224  0.5707158985272065  0.6431721108859605
  0.4983693054332036  0.4044777044875311  0.7824812278004719
  0.5023486501239429  0.5692890518785393  0.7369797859525179
  0.4698116248296711  0.4297523675181543  0.8794389154381032
  0.5172519053183082  0.5661570790648460  0.8305648985127441
  0.4495786308507413  0.4923947065922256  0.9782348641034667
  0.5384118752883565  0.5735104494423068  0.9232595256615465
  0.1698977916578719  0.7196576225222692  0.5035461774351071
  0.1656479599894502  0.8669735352379129  0.4567345670980345
  0.1705072013452855  0.7368234901429797  0.5952595641693555
  0.1674779904628523  0.9011679752148429  0.5472125992226586
  0.1692405638520711  0.7365498163525458  0.6894065125033615
  0.1706240389401627  0.9002158627593260  0.6441923728940452
  0.1696789599689467  0.7336854847486941  0.7832127896875216
  0.1734296821595253  0.8995997089562499  0.7379514426868379
  0.1677693075824316  0.7287984643447414  0.8728255915756518
  0.1918895303577965  0.8914696094850839  0.8262142271655645
  0.1623309775216172  0.7586416888068329  0.9504183864050537
  0.1826639385343873  0.9020116844267988  0.9075795277304830
  0.8529610597884218  0.3785064748908570  0.5031307374565273
  0.8369023133251045  0.5684123824074893  0.4730379528516833
  0.8372579495050206  0.3966955903778829  0.5962721717099266
  0.8231492074892265  0.5741230182757255  0.5522788779816539
  0.8358540193168008  0.4016319745720184  0.6889586357085631
  0.8324233150747958  0.5708096820421695  0.6428106626185252
  0.8390033205517755  0.4027638179977636  0.7815671824087342
  0.8399290639552155  0.5677684880497753  0.7347461804892603
  0.8636906047037270  0.3934689587142834  0.8816832547552788
  0.8514389823975400  0.5624260767425034  0.8293471836547212
  0.8575558765582384  0.3339944919677569  0.9758768231393186
  0.8500093981453476  0.5689160756809825  0.9393952249349115
  0.4778252640664005  0.7551894629956520  0.5038556230499066
  0.5724267292455958  0.8525861641081893  0.4549505043565243
  0.4921289790134792  0.7422639014980394  0.5978320466756881
  0.4941933906465784  0.9023105208156529  0.5479945482477456
  0.5015815865961548  0.7364250136013862  0.6897844974214974
  0.4968660246402721  0.9036115520264670  0.6435308469879245
  0.5176774631137953  0.7297116039596443  0.7818457595312350
  0.5000051990935166  0.9039832632179116  0.7368671453587687
  0.5401321091319869  0.7228214890610002  0.8764416112729515
  0.5155204934295846  0.8960870663592168  0.8300875736420436
  0.3949105309405585  0.8023673841583421  0.9728962308624260
  0.5463964994410004  0.8701886006268689  0.9240850947433195
  0.8477935027874886  0.7434331606300367  0.5070839821151129
  0.7877795791691846  0.9486663783788860  0.4570962641742700
  0.8245393164317578  0.7468176526668692  0.5962833695184889
  0.8286547842092299  0.9179540694833714  0.5470885189972415
  0.8310414003173364  0.7408202319456816  0.6887182299222755
  0.8407112822028709  0.9030115659699343  0.6429667875554255
  0.8345988535496571  0.7362176045025334  0.7814662292549480
  0.8376564996253998  0.9029209095363521  0.7373349995903942
  0.8574160388314007  0.7273141530956074  0.8793825893862096
  0.8219095494712964  0.9079968800506660  0.8302216187800602
  0.8618270278201829  0.7859143756551700  0.9778658771997922
  0.8029065280450499  0.9363405379449519  0.9196155423718224
  0.4061862527616834  0.0501531416816198  0.0286838152120891
  0.4000983825728596  0.0508147263839733  0.1334529610833798
  0.4009661070831855  0.0528234727725488  0.2374251014497098
  0.4025306719673810  0.0536328418061359  0.3416131824279240
  0.3920107765569259  0.3052424088241861  0.0308658670823512
  0.4020946089403209  0.3016285999070494  0.1335846263731815
  0.4016758400220081  0.3028170314461955  0.2378533887175174
  0.4034690298136193  0.3019625067944633  0.3420999696510059
  0.4065222994940359  0.5434593161532927  0.0290597014872533
  0.4007013006730915  0.5522708212134265  0.1336564827754030
  0.4017324104919252  0.5530685766544464  0.2375364589498113
  0.4011712371090793  0.5518367334012467  0.3418227416687498
  0.4114749947617868  0.7937962048881808  0.0256216160249189
  0.3999771991659395  0.8015973487319448  0.1327563021656361
  0.3993831724776349  0.8033553450223052  0.2374309316104163
  0.4049753151551394  0.8007836504098541  0.3419055417380112
  0.8934128453070324  0.0526369217242413  0.0247571441619585
  0.9023007593538707  0.0507475366520006  0.1319649483369356
  0.9022837473484416  0.0520641103369121  0.2374954040645379
  0.8996186557139778  0.0532947270408294  0.3425017082466414
  0.9020183485844647  0.3036651834307995  0.0278772727085260
  0.9036649049197547  0.2995054818923561  0.1329856689912705
  0.9022715414932414  0.3016416579487018  0.2372340154903380
  0.9029801533266349  0.3035593311049055  0.3414084454848726
  0.8989745119476454  0.5505433832083900  0.0350359860000233
  0.8986756435536267  0.5524350856364553  0.1345657942837246
  0.9018730996134696  0.5525970632238778  0.2378463351432404
  0.9015751105106803  0.5530216711598889  0.3415384259347657
  0.9002518068591369  0.7956780491409485  0.0288781668983076
  0.9022130929013042  0.8018317777657996  0.1332025628756780
  0.9009864380329063  0.8037557398870165  0.2375360652090337
  0.9040800476754238  0.8006057241083774  0.3416492503501675
 
  0.00000000E+00  0.00000000E+00  0.00000000E+00
  0.00000000E+00  0.00000000E+00  0.00000000E+00
  0.00000000E+00  0.00000000E+00  0.00000000E+00
  0.00000000E+00  0.00000000E+00  0.00000000E+00
  0.00000000E+00  0.00000000E+00  0.00000000E+00
  0.00000000E+00  0.00000000E+00  0.00000000E+00
  0.00000000E+00  0.00000000E+00  0.00000000E+00
  0.00000000E+00  0.00000000E+00  0.00000000E+00
  0.00000000E+00  0.00000000E+00  0.00000000E+00
  0.00000000E+00  0.00000000E+00  0.00000000E+00
  0.00000000E+00  0.00000000E+00  0.00000000E+00
  0.00000000E+00  0.00000000E+00  0.00000000E+00
  0.00000000E+00  0.00000000E+00  0.00000000E+00
  0.00000000E+00  0.00000000E+00  0.00000000E+00
  0.00000000E+00  0.00000000E+00  0.00000000E+00
  0.00000000E+00  0.00000000E+00  0.00000000E+00
  0.00000000E+00  0.00000000E+00  0.00000000E+00
  0.00000000E+00  0.00000000E+00  0.00000000E+00
  0.00000000E+00  0.00000000E+00  0.00000000E+00
  0.00000000E+00  0.00000000E+00  0.00000000E+00
  0.00000000E+00  0.00000000E+00  0.00000000E+00
  0.00000000E+00  0.00000000E+00  0.00000000E+00
  0.00000000E+00  0.00000000E+00  0.00000000E+00
  0.00000000E+00  0.00000000E+00  0.00000000E+00
  0.00000000E+00  0.00000000E+00  0.00000000E+00
  0.00000000E+00  0.00000000E+00  0.00000000E+00
  0.00000000E+00  0.00000000E+00  0.00000000E+00
  0.00000000E+00  0.00000000E+00  0.00000000E+00
  0.00000000E+00  0.00000000E+00  0.00000000E+00
  0.00000000E+00  0.00000000E+00  0.00000000E+00
  0.00000000E+00  0.00000000E+00  0.00000000E+00
  0.00000000E+00  0.00000000E+00  0.00000000E+00
  0.00000000E+00  0.00000000E+00  0.00000000E+00
  0.00000000E+00  0.00000000E+00  0.00000000E+00
  0.00000000E+00  0.00000000E+00  0.00000000E+00
  0.00000000E+00  0.00000000E+00  0.00000000E+00
  0.00000000E+00  0.00000000E+00  0.00000000E+00
  0.00000000E+00  0.00000000E+00  0.00000000E+00
  0.00000000E+00  0.00000000E+00  0.00000000E+00
  0.00000000E+00  0.00000000E+00  0.00000000E+00
  0.00000000E+00  0.00000000E+00  0.00000000E+00
  0.00000000E+00  0.00000000E+00  0.00000000E+00
  0.00000000E+00  0.00000000E+00  0.00000000E+00
  0.00000000E+00  0.00000000E+00  0.00000000E+00
  0.00000000E+00  0.00000000E+00  0.00000000E+00
  0.00000000E+00  0.00000000E+00  0.00000000E+00
  0.00000000E+00  0.00000000E+00  0.00000000E+00
  0.00000000E+00  0.00000000E+00  0.00000000E+00
  0.00000000E+00  0.00000000E+00  0.00000000E+00
  0.00000000E+00  0.00000000E+00  0.00000000E+00
  0.00000000E+00  0.00000000E+00  0.00000000E+00
  0.00000000E+00  0.00000000E+00  0.00000000E+00
  0.00000000E+00  0.00000000E+00  0.00000000E+00
  0.00000000E+00  0.00000000E+00  0.00000000E+00
  0.00000000E+00  0.00000000E+00  0.00000000E+00
  0.00000000E+00  0.00000000E+00  0.00000000E+00
  0.00000000E+00  0.00000000E+00  0.00000000E+00
  0.00000000E+00  0.00000000E+00  0.00000000E+00
  0.00000000E+00  0.00000000E+00  0.00000000E+00
  0.00000000E+00  0.00000000E+00  0.00000000E+00
  0.00000000E+00  0.00000000E+00  0.00000000E+00
  0.00000000E+00  0.00000000E+00  0.00000000E+00
  0.00000000E+00  0.00000000E+00  0.00000000E+00
  0.00000000E+00  0.00000000E+00  0.00000000E+00
  0.00000000E+00  0.00000000E+00  0.00000000E+00
  0.00000000E+00  0.00000000E+00  0.00000000E+00
  0.00000000E+00  0.00000000E+00  0.00000000E+00
  0.00000000E+00  0.00000000E+00  0.00000000E+00
  0.00000000E+00  0.00000000E+00  0.00000000E+00
  0.00000000E+00  0.00000000E+00  0.00000000E+00
  0.00000000E+00  0.00000000E+00  0.00000000E+00
  0.00000000E+00  0.00000000E+00  0.00000000E+00
  0.00000000E+00  0.00000000E+00  0.00000000E+00
  0.00000000E+00  0.00000000E+00  0.00000000E+00
  0.00000000E+00  0.00000000E+00  0.00000000E+00
  0.00000000E+00  0.00000000E+00  0.00000000E+00
  0.00000000E+00  0.00000000E+00  0.00000000E+00
  0.00000000E+00  0.00000000E+00  0.00000000E+00
  0.00000000E+00  0.00000000E+00  0.00000000E+00
  0.00000000E+00  0.00000000E+00  0.00000000E+00
  0.00000000E+00  0.00000000E+00  0.00000000E+00
  0.00000000E+00  0.00000000E+00  0.00000000E+00
  0.00000000E+00  0.00000000E+00  0.00000000E+00
  0.00000000E+00  0.00000000E+00  0.00000000E+00
  0.00000000E+00  0.00000000E+00  0.00000000E+00
  0.00000000E+00  0.00000000E+00  0.00000000E+00
  0.00000000E+00  0.00000000E+00  0.00000000E+00
  0.00000000E+00  0.00000000E+00  0.00000000E+00
  0.00000000E+00  0.00000000E+00  0.00000000E+00
  0.00000000E+00  0.00000000E+00  0.00000000E+00
  0.00000000E+00  0.00000000E+00  0.00000000E+00
  0.00000000E+00  0.00000000E+00  0.00000000E+00
  0.00000000E+00  0.00000000E+00  0.00000000E+00
  0.00000000E+00  0.00000000E+00  0.00000000E+00
  0.00000000E+00  0.00000000E+00  0.00000000E+00
  0.00000000E+00  0.00000000E+00  0.00000000E+00
  0.00000000E+00  0.00000000E+00  0.00000000E+00
  0.00000000E+00  0.00000000E+00  0.00000000E+00
  0.00000000E+00  0.00000000E+00  0.00000000E+00
  0.00000000E+00  0.00000000E+00  0.00000000E+00
  0.00000000E+00  0.00000000E+00  0.00000000E+00
  0.00000000E+00  0.00000000E+00  0.00000000E+00
  0.00000000E+00  0.00000000E+00  0.00000000E+00
  0.00000000E+00  0.00000000E+00  0.00000000E+00
  0.00000000E+00  0.00000000E+00  0.00000000E+00
  0.00000000E+00  0.00000000E+00  0.00000000E+00
  0.00000000E+00  0.00000000E+00  0.00000000E+00
  0.00000000E+00  0.00000000E+00  0.00000000E+00
  0.00000000E+00  0.00000000E+00  0.00000000E+00
  0.00000000E+00  0.00000000E+00  0.00000000E+00
  0.00000000E+00  0.00000000E+00  0.00000000E+00
  0.00000000E+00  0.00000000E+00  0.00000000E+00
  0.00000000E+00  0.00000000E+00  0.00000000E+00
  0.00000000E+00  0.00000000E+00  0.00000000E+00
  0.00000000E+00  0.00000000E+00  0.00000000E+00
  0.00000000E+00  0.00000000E+00  0.00000000E+00
  0.00000000E+00  0.00000000E+00  0.00000000E+00
  0.00000000E+00  0.00000000E+00  0.00000000E+00
  0.00000000E+00  0.00000000E+00  0.00000000E+00
  0.00000000E+00  0.00000000E+00  0.00000000E+00
  0.00000000E+00  0.00000000E+00  0.00000000E+00
  0.00000000E+00  0.00000000E+00  0.00000000E+00
  0.00000000E+00  0.00000000E+00  0.00000000E+00
  0.00000000E+00  0.00000000E+00  0.00000000E+00
  0.00000000E+00  0.00000000E+00  0.00000000E+00
  0.00000000E+00  0.00000000E+00  0.00000000E+00
  0.00000000E+00  0.00000000E+00  0.00000000E+00
  0.00000000E+00  0.00000000E+00  0.00000000E+00
  0.00000000E+00  0.00000000E+00  0.00000000E+00
  0.00000000E+00  0.00000000E+00  0.00000000E+00
  0.00000000E+00  0.00000000E+00  0.00000000E+00
  0.00000000E+00  0.00000000E+00  0.00000000E+00
  0.00000000E+00  0.00000000E+00  0.00000000E+00
  0.00000000E+00  0.00000000E+00  0.00000000E+00
  0.00000000E+00  0.00000000E+00  0.00000000E+00
  0.00000000E+00  0.00000000E+00  0.00000000E+00
  0.00000000E+00  0.00000000E+00  0.00000000E+00
  0.00000000E+00  0.00000000E+00  0.00000000E+00
  0.00000000E+00  0.00000000E+00  0.00000000E+00
  0.00000000E+00  0.00000000E+00  0.00000000E+00
  0.00000000E+00  0.00000000E+00  0.00000000E+00
  0.00000000E+00  0.00000000E+00  0.00000000E+00
  0.00000000E+00  0.00000000E+00  0.00000000E+00
  0.00000000E+00  0.00000000E+00  0.00000000E+00
  0.00000000E+00  0.00000000E+00  0.00000000E+00
  0.00000000E+00  0.00000000E+00  0.00000000E+00
  0.00000000E+00  0.00000000E+00  0.00000000E+00
  0.00000000E+00  0.00000000E+00  0.00000000E+00
  0.00000000E+00  0.00000000E+00  0.00000000E+00
  0.00000000E+00  0.00000000E+00  0.00000000E+00
  0.00000000E+00  0.00000000E+00  0.00000000E+00
  0.00000000E+00  0.00000000E+00  0.00000000E+00
  0.00000000E+00  0.00000000E+00  0.00000000E+00
  0.00000000E+00  0.00000000E+00  0.00000000E+00
  0.00000000E+00  0.00000000E+00  0.00000000E+00
  0.00000000E+00  0.00000000E+00  0.00000000E+00
  0.00000000E+00  0.00000000E+00  0.00000000E+00
  0.00000000E+00  0.00000000E+00  0.00000000E+00
  0.00000000E+00  0.00000000E+00  0.00000000E+00
  0.00000000E+00  0.00000000E+00  0.00000000E+00
  0.00000000E+00  0.00000000E+00  0.00000000E+00
  0.00000000E+00  0.00000000E+00  0.00000000E+00
  0.00000000E+00  0.00000000E+00  0.00000000E+00
  0.00000000E+00  0.00000000E+00  0.00000000E+00
  0.00000000E+00  0.00000000E+00  0.00000000E+00
  0.00000000E+00  0.00000000E+00  0.00000000E+00
  0.00000000E+00  0.00000000E+00  0.00000000E+00
  0.00000000E+00  0.00000000E+00  0.00000000E+00
  0.00000000E+00  0.00000000E+00  0.00000000E+00
  0.00000000E+00  0.00000000E+00  0.00000000E+00
  0.00000000E+00  0.00000000E+00  0.00000000E+00
  0.00000000E+00  0.00000000E+00  0.00000000E+00
  0.00000000E+00  0.00000000E+00  0.00000000E+00
  0.00000000E+00  0.00000000E+00  0.00000000E+00
  0.00000000E+00  0.00000000E+00  0.00000000E+00
  0.00000000E+00  0.00000000E+00  0.00000000E+00
  0.00000000E+00  0.00000000E+00  0.00000000E+00
  0.00000000E+00  0.00000000E+00  0.00000000E+00
  0.00000000E+00  0.00000000E+00  0.00000000E+00
  0.00000000E+00  0.00000000E+00  0.00000000E+00
  0.00000000E+00  0.00000000E+00  0.00000000E+00
  0.00000000E+00  0.00000000E+00  0.00000000E+00
  0.00000000E+00  0.00000000E+00  0.00000000E+00
  0.00000000E+00  0.00000000E+00  0.00000000E+00
  0.00000000E+00  0.00000000E+00  0.00000000E+00
  0.00000000E+00  0.00000000E+00  0.00000000E+00
  0.00000000E+00  0.00000000E+00  0.00000000E+00
  0.00000000E+00  0.00000000E+00  0.00000000E+00
  0.00000000E+00  0.00000000E+00  0.00000000E+00
  0.00000000E+00  0.00000000E+00  0.00000000E+00
  0.00000000E+00  0.00000000E+00  0.00000000E+00
  0.00000000E+00  0.00000000E+00  0.00000000E+00
  0.00000000E+00  0.00000000E+00  0.00000000E+00
  0.00000000E+00  0.00000000E+00  0.00000000E+00
  0.00000000E+00  0.00000000E+00  0.00000000E+00
  0.00000000E+00  0.00000000E+00  0.00000000E+00
  0.00000000E+00  0.00000000E+00  0.00000000E+00
  0.00000000E+00  0.00000000E+00  0.00000000E+00
  0.00000000E+00  0.00000000E+00  0.00000000E+00
  0.00000000E+00  0.00000000E+00  0.00000000E+00
  0.00000000E+00  0.00000000E+00  0.00000000E+00
  0.00000000E+00  0.00000000E+00  0.00000000E+00
  0.00000000E+00  0.00000000E+00  0.00000000E+00
  0.00000000E+00  0.00000000E+00  0.00000000E+00
  0.00000000E+00  0.00000000E+00  0.00000000E+00
  0.00000000E+00  0.00000000E+00  0.00000000E+00
  0.00000000E+00  0.00000000E+00  0.00000000E+00
  0.00000000E+00  0.00000000E+00  0.00000000E+00
  0.00000000E+00  0.00000000E+00  0.00000000E+00
  0.00000000E+00  0.00000000E+00  0.00000000E+00
  0.00000000E+00  0.00000000E+00  0.00000000E+00
  0.00000000E+00  0.00000000E+00  0.00000000E+00
  0.00000000E+00  0.00000000E+00  0.00000000E+00
  0.00000000E+00  0.00000000E+00  0.00000000E+00
  0.00000000E+00  0.00000000E+00  0.00000000E+00
  0.00000000E+00  0.00000000E+00  0.00000000E+00
  0.00000000E+00  0.00000000E+00  0.00000000E+00
  0.00000000E+00  0.00000000E+00  0.00000000E+00
  0.00000000E+00  0.00000000E+00  0.00000000E+00
  0.00000000E+00  0.00000000E+00  0.00000000E+00
  0.00000000E+00  0.00000000E+00  0.00000000E+00
  0.00000000E+00  0.00000000E+00  0.00000000E+00
  0.00000000E+00  0.00000000E+00  0.00000000E+00
  0.00000000E+00  0.00000000E+00  0.00000000E+00
  0.00000000E+00  0.00000000E+00  0.00000000E+00
  0.00000000E+00  0.00000000E+00  0.00000000E+00
  0.00000000E+00  0.00000000E+00  0.00000000E+00
  0.00000000E+00  0.00000000E+00  0.00000000E+00
  0.00000000E+00  0.00000000E+00  0.00000000E+00
  0.00000000E+00  0.00000000E+00  0.00000000E+00
  0.00000000E+00  0.00000000E+00  0.00000000E+00
  0.00000000E+00  0.00000000E+00  0.00000000E+00
  0.00000000E+00  0.00000000E+00  0.00000000E+00
  0.00000000E+00  0.00000000E+00  0.00000000E+00
  0.00000000E+00  0.00000000E+00  0.00000000E+00
  0.00000000E+00  0.00000000E+00  0.00000000E+00
  0.00000000E+00  0.00000000E+00  0.00000000E+00
  0.00000000E+00  0.00000000E+00  0.00000000E+00
  0.00000000E+00  0.00000000E+00  0.00000000E+00
  0.00000000E+00  0.00000000E+00  0.00000000E+00
  0.00000000E+00  0.00000000E+00  0.00000000E+00
  0.00000000E+00  0.00000000E+00  0.00000000E+00
  0.00000000E+00  0.00000000E+00  0.00000000E+00
  0.00000000E+00  0.00000000E+00  0.00000000E+00
  0.00000000E+00  0.00000000E+00  0.00000000E+00
  0.00000000E+00  0.00000000E+00  0.00000000E+00
  0.00000000E+00  0.00000000E+00  0.00000000E+00
  0.00000000E+00  0.00000000E+00  0.00000000E+00
  0.00000000E+00  0.00000000E+00  0.00000000E+00
  0.00000000E+00  0.00000000E+00  0.00000000E+00
  0.00000000E+00  0.00000000E+00  0.00000000E+00
  0.00000000E+00  0.00000000E+00  0.00000000E+00
  0.00000000E+00  0.00000000E+00  0.00000000E+00
  0.00000000E+00  0.00000000E+00  0.00000000E+00
  0.00000000E+00  0.00000000E+00  0.00000000E+00
  0.00000000E+00  0.00000000E+00  0.00000000E+00
  0.00000000E+00  0.00000000E+00  0.00000000E+00
  0.00000000E+00  0.00000000E+00  0.00000000E+00
  0.00000000E+00  0.00000000E+00  0.00000000E+00
  0.00000000E+00  0.00000000E+00  0.00000000E+00
  0.00000000E+00  0.00000000E+00  0.00000000E+00
  0.00000000E+00  0.00000000E+00  0.00000000E+00
  0.00000000E+00  0.00000000E+00  0.00000000E+00
  0.00000000E+00  0.00000000E+00  0.00000000E+00
  0.00000000E+00  0.00000000E+00  0.00000000E+00
  0.00000000E+00  0.00000000E+00  0.00000000E+00
  0.00000000E+00  0.00000000E+00  0.00000000E+00
  0.00000000E+00  0.00000000E+00  0.00000000E+00
